Pt  O 
 1.0000000000000000
     9.7177920199999992    0.0000000000000000    0.0000000000000000
     0.0000000000000000   11.2211396800000003    0.0000000000000000
     0.0000000000000000    0.0000000000000000   25.0000000000000000
 Pt  O  
  64   2
Selective dynamics
Cartesian
  0.0000000000000000  0.0000000000000000  0.0000000000000000   F   F   F
  3.2392640228629768  0.0000000000000000  2.2905055204283551   F   F   F
  1.6177472138707454 11.2182253495791855  4.4842357335530121   F   F   F
  2.4294480049999998  1.4026424600000000  0.0000000000000000   F   F   F
  0.8098160178629769  1.4026424600000000  2.2905055204283551   F   F   F
  4.0639043528625063  1.4082693953550096  4.5327321474523847   F   F   F
  9.7026862309418878 11.2096870621413434  6.7753808495252175   F   F   F
  2.3886228279497104  1.3396941799927469  6.7358395051691433   F   F   F
  0.0000000000000000  2.8052849200000001  0.0000000000000000   F   F   F
  3.2392640228629768  2.8052849200000001  2.2905055204283551   F   F   F
  1.6335118859353752  2.8186171423579145  4.5195561200145802   F   F   F
  2.4294480049999998  4.2079273800000001  0.0000000000000000   F   F   F
  0.8098160178629769  4.2079273800000001  2.2905055204283551   F   F   F
  4.0583309700968977  4.2073335643634344  4.5448406504508956   F   F   F
  9.7067681330699447  2.7837670765130160  6.7699891276242870   F   F   F
  2.3507859146264303  4.2081114306646432  6.8031917339284593   F   F   F
  0.0000000000000000  5.6105698400000001  0.0000000000000000   F   F   F
  3.2392640228629768  5.6105698400000001  2.2905055204283551   F   F   F
  1.6335161925674961  5.5972407490773231  4.5194871433185870   F   F   F
  2.4294480049999998  7.0132123000000002  0.0000000000000000   F   F   F
  0.8098160178629769  7.0132123000000002  2.2905055204283551   F   F   F
  4.0635090178823479  7.0070807480070130  4.5328341772524077   F   F   F
  9.7067052574671564  5.6327304052572238  6.7696432137288971   F   F   F
  2.3880097192464684  7.0763285736496124  6.7362441120494125   F   F   F
  0.0000000000000000  8.4158547600000002  0.0000000000000000   F   F   F
  3.2392640228629768  8.4158547600000002  2.2905055204283551   F   F   F
  1.6174979682284663  8.4189457403062793  4.4839736518305422   F   F   F
  2.4294480049999998  9.8184972200000011  0.0000000000000000   F   F   F
  0.8098160178629769  9.8184972200000011  2.2905055204283551   F   F   F
  4.0463007965113542  9.8183594565232220  4.4970982264623549   F   F   F
  9.7026247781494277  8.4276576568534534  6.7756270311590647   F   F   F
  2.4152620786925629  9.8184867997772400  6.7734428142151497   F   F   F
  4.8588960099999996  0.0000000000000000  0.0000000000000000   F   F   F
  8.0981600328629764  0.0000000000000000  2.2905055204283551   F   F   F
  6.4829009363662662 11.2149668082040410  4.5036097621276676   F   F   F
  7.2883440149999998  1.4026424600000000  0.0000000000000000   F   F   F
  5.6687120278629761  1.4026424600000000  2.2905055204283551   F   F   F
  8.9093074410492363  1.4082885665383251  4.4931200828581748   F   F   F
  4.8652702844313502 11.1853420818190106  6.7725588817209594   F   F   F
  7.3244667425225725  1.3735064959125924  6.7732397115497678   F   F   F
  4.8588960099999996  2.8052849200000001  0.0000000000000000   F   F   F
  8.0981600328629764  2.8052849200000001  2.2905055204283551   F   F   F
  6.4456137792454884  2.7934442208302923  4.5522386214120978   F   F   F
  7.2883440149999998  4.2079273800000001  0.0000000000000000   F   F   F
  5.6687120278629761  4.2079273800000001  2.2905055204283551   F   F   F
  8.9001164540797237  4.2080232284352741  4.4895612334554897   F   F   F
  4.9454079413877388  2.7782417254038894  6.8539979277040297   F   F   F
  7.3548205481952067  4.2082289822027894  6.7573998139867424   F   F   F
  4.8588960099999996  5.6105698400000001  0.0000000000000000   F   F   F
  8.0981600328629764  5.6105698400000001  2.2905055204283551   F   F   F
  6.4454738344724589  5.6226325899717500  4.5523086919101496   F   F   F
  7.2883440149999998  7.0132123000000002  0.0000000000000000   F   F   F
  5.6687120278629761  7.0132123000000002  2.2905055204283551   F   F   F
  8.9094572132408434  7.0075866822056119  4.4934465447827501   F   F   F
  4.9441668457000354  5.6370163968747189  6.8538527636241131   F   F   F
  7.3240784424027012  7.0425764198739662  6.7733583221980576   F   F   F
  4.8588960099999996  8.4158547600000002  0.0000000000000000   F   F   F
  8.0981600328629764  8.4158547600000002  2.2905055204283551   F   F   F
  6.4832693289801462  8.4218783754597268  4.5038455007006899   F   F   F
  7.2883440149999998  9.8184972200000011  0.0000000000000000   F   F   F
  5.6687120278629761  9.8184972200000011  2.2905055204283551   F   F   F
  8.9104373253347777  9.8185260306033530  4.4999741093991945   F   F   F
  4.8654017692032205  8.4513503928338221  6.7725735114328280   F   F   F
  7.2982410562651383  9.8186868299131405  6.7818349022883808   F   F   F
  4.0578411885144607  3.3197231856888769  8.4694507093877771   T   T   T
  4.0564067345002606  5.0941267680143323  8.4686576146812431   T   T   T
