Pt  O                                   
   1.00000000000000     
     9.7177920199999992    0.0000000000000000    0.0000000000000000
     0.0000000000000000   11.2211396800000003    0.0000000000000000
     0.0000000000000000    0.0000000000000000   25.0000000000000000
   Pt   O 
    64     2
Selective dynamics
Direct
  0.0000000000000000  0.0000000000000000  0.0000000000000000   F   F   F
  0.3333333349999990  0.0000000000000000  0.0916202208171342   F   F   F
  0.1656590617041606  0.9996055274385789  0.1792665441352640   T   T   T
  0.2500000000000000  0.1250000000000000  0.0000000000000000   F   F   F
  0.0833333349999989  0.1250000000000000  0.0916202208171342   F   F   F
  0.4167706384098270  0.1254067020452545  0.1805341149479628   T   T   T
  0.9982623324900806  0.9996760362068746  0.2709519193100224   T   T   T
  0.2449809954187513  0.1188856854584894  0.2692226617855338   T   T   T
  0.0000000000000000  0.2500000000000000  0.0000000000000000   F   F   F
  0.3333333349999990  0.2500000000000000  0.0916202208171342   F   F   F
  0.1671232117745217  0.2502451127222430  0.1804582583872523   T   T   T
  0.2500000000000000  0.3749999999999999  0.0000000000000000   F   F   F
  0.0833333349999989  0.3749999999999999  0.0916202208171342   F   F   F
  0.4179978264595282  0.3761927320822568  0.1816485184350593   T   T   T
  0.9985487729508045  0.2474990854553636  0.2706798839497166   T   T   T
  0.2477623407597709  0.3771116121546849  0.2731780176118084   T   T   T
  0.0000000000000000  0.4999999999999999  0.0000000000000000   F   F   F
  0.3333333349999990  0.4999999999999999  0.0916202208171342   F   F   F
  0.1697084029228939  0.4965755815709580  0.1816304222368018   T   T   T
  0.2500000000000000  0.6249999999999999  0.0000000000000000   F   F   F
  0.0833333349999989  0.6249999999999999  0.0916202208171342   F   F   F
  0.4197471082422885  0.6253195246889769  0.1813127106377565   T   T   T
  0.0015469757177717  0.5004210613158813  0.2705167494619603   T   T   T
  0.2480994898486169  0.6292217339909100  0.2694514059749532   T   T   T
  0.0000000000000000  0.7499999999999999  0.0000000000000000   F   F   F
  0.3333333349999990  0.7499999999999999  0.0916202208171342   F   F   F
  0.1671967937135094  0.7496680363506583  0.1792172761704601   T   T   T
  0.2500000000000000  0.8749999999999999  0.0000000000000000   F   F   F
  0.0833333349999989  0.8749999999999999  0.0916202208171342   F   F   F
  0.4158608807041379  0.8755798589644757  0.1795689714440100   T   T   T
  0.0006136471822769  0.7514447297065688  0.2706501129407607   T   T   T
  0.2486830606944277  0.8750341292063485  0.2706345610915155   T   T   T
  0.4999999999999999  0.0000000000000000  0.0000000000000000   F   F   F
  0.8333333349999990  0.0000000000000000  0.0916202208171342   F   F   F
  0.6667025373274320  0.9998787475734120  0.1799371702045188   T   T   T
  0.7500000000000000  0.1250000000000000  0.0000000000000000   F   F   F
  0.5833333349999990  0.1250000000000000  0.0916202208171342   F   F   F
  0.9159234994916866  0.1250507301466394  0.1798078119487513   T   T   T
  0.5004571303570200  0.9987960687763379  0.2705475197319189   T   T   T
  0.7509226389931031  0.1236944436039323  0.2709011208757362   T   T   T
  0.4999999999999999  0.2500000000000000  0.0000000000000000   F   F   F
  0.8333333349999990  0.2500000000000000  0.0916202208171342   F   F   F
  0.6632890894528521  0.2493804609689847  0.1816493096329043   T   T   T
  0.7500000000000000  0.3749999999999999  0.0000000000000000   F   F   F
  0.5833333349999990  0.3749999999999999  0.0916202208171342   F   F   F
  0.9173045290345431  0.3743947406759575  0.1794932926351455   T   T   T
  0.5050620185192685  0.2484141395679670  0.2729207128483226   T   T   T
  0.7565831832755390  0.3748789592691670  0.2695547847977600   T   T   T
  0.4999999999999999  0.4999999999999999  0.0000000000000000   F   F   F
  0.8333333349999990  0.4999999999999999  0.0916202208171342   F   F   F
  0.6669926681109843  0.5014344092813511  0.1811722770540736   T   T   T
  0.7500000000000000  0.6249999999999999  0.0000000000000000   F   F   F
  0.5833333349999990  0.6249999999999999  0.0916202208171342   F   F   F
  0.9196316965763918  0.6241504190085234  0.1795553492844032   T   T   T
  0.5090345067704007  0.5112493404242695  0.2721820217491820   T   T   T
  0.7581932076023666  0.6288067884184849  0.2703098569898745   T   T   T
  0.4999999999999999  0.7499999999999999  0.0000000000000000   F   F   F
  0.8333333349999990  0.7499999999999999  0.0916202208171342   F   F   F
  0.6682385432835274  0.7509232525783933  0.1800192285075793   T   T   T
  0.7500000000000000  0.8749999999999999  0.0000000000000000   F   F   F
  0.5833333349999990  0.8749999999999999  0.0916202208171342   F   F   F
  0.9171620735335996  0.8750045353513324  0.1798891251580091   T   T   T
  0.5012802812820278  0.7569095596982824  0.2705574201312688   T   T   T
  0.7518691811167312  0.8761123946943722  0.2709705942001404   T   T   T
  0.4745633739758719  0.4597827408770866  0.3427809583373223   T   T   T
  0.3825235138066628  0.3221171701990474  0.3305534576244679   T   T   T
 
  0.00000000E+00  0.00000000E+00  0.00000000E+00
  0.00000000E+00  0.00000000E+00  0.00000000E+00
  0.17263290E-03  0.55200777E-02  0.39237242E-02
  0.00000000E+00  0.00000000E+00  0.00000000E+00
  0.00000000E+00  0.00000000E+00  0.00000000E+00
  0.48167093E-02 -0.10746256E-02  0.84558294E-02
 -0.45258169E-02 -0.95540177E-02  0.15046406E-02
 -0.16987359E-01 -0.31075030E-01  0.46181021E-02
  0.00000000E+00  0.00000000E+00  0.00000000E+00
  0.00000000E+00  0.00000000E+00  0.00000000E+00
  0.41095627E-02  0.46578084E-02  0.49665023E-02
  0.00000000E+00  0.00000000E+00  0.00000000E+00
  0.00000000E+00  0.00000000E+00  0.00000000E+00
  0.20016777E-01  0.25782356E-01  0.63288561E-01
 -0.89990428E-02 -0.46201288E-02  0.16697382E-02
 -0.24194637E-01 -0.60211860E-02  0.76349689E-01
  0.00000000E+00  0.00000000E+00  0.00000000E+00
  0.00000000E+00  0.00000000E+00  0.00000000E+00
  0.41724052E-02 -0.18496294E-01  0.99078157E-02
  0.00000000E+00  0.00000000E+00  0.00000000E+00
  0.00000000E+00  0.00000000E+00  0.00000000E+00
 -0.83788789E-03 -0.11759987E-02  0.12032846E-01
  0.57608609E-02 -0.76706998E-02 -0.95585066E-02
 -0.13663107E-01  0.22705740E-02  0.20333951E-02
  0.00000000E+00  0.00000000E+00  0.00000000E+00
  0.00000000E+00  0.00000000E+00  0.00000000E+00
 -0.31806938E-02 -0.47423880E-02 -0.54096145E-03
  0.00000000E+00  0.00000000E+00  0.00000000E+00
  0.00000000E+00  0.00000000E+00  0.00000000E+00
 -0.76645003E-02  0.26419706E-02 -0.56161751E-02
 -0.67484488E-02 -0.74146741E-03 -0.75009255E-03
 -0.59203191E-04 -0.10036883E-01  0.25514587E-02
  0.00000000E+00  0.00000000E+00  0.00000000E+00
  0.00000000E+00  0.00000000E+00  0.00000000E+00
 -0.21821213E-02  0.14572608E-02 -0.25910213E-02
  0.00000000E+00  0.00000000E+00  0.00000000E+00
  0.00000000E+00  0.00000000E+00  0.00000000E+00
 -0.35278829E-02 -0.34773360E-02  0.51474823E-03
  0.62334550E-02 -0.96694311E-02 -0.49949074E-02
 -0.90481310E-02  0.29828701E-02 -0.13368683E-02
  0.00000000E+00  0.00000000E+00  0.00000000E+00
  0.00000000E+00  0.00000000E+00  0.00000000E+00
 -0.11342214E-01  0.72331459E-02  0.11154892E-01
  0.00000000E+00  0.00000000E+00  0.00000000E+00
  0.00000000E+00  0.00000000E+00  0.00000000E+00
 -0.20930734E-02 -0.47706848E-02 -0.50221293E-02
 -0.17608802E-01 -0.13121834E-01  0.81380236E-01
  0.91087658E-02 -0.12075990E-01  0.27077935E-02
  0.00000000E+00  0.00000000E+00  0.00000000E+00
  0.00000000E+00  0.00000000E+00  0.00000000E+00
  0.22398151E-02 -0.39214913E-02  0.12349404E-01
  0.00000000E+00  0.00000000E+00  0.00000000E+00
  0.00000000E+00  0.00000000E+00  0.00000000E+00
 -0.33361109E-02  0.78930662E-02 -0.41035086E-03
  0.17936828E-01  0.43332177E-01  0.47785639E-01
  0.16012708E-01  0.13655039E-01 -0.16836952E-01
  0.00000000E+00  0.00000000E+00  0.00000000E+00
  0.00000000E+00  0.00000000E+00  0.00000000E+00
  0.11322181E-02 -0.54313943E-03 -0.62265618E-02
  0.00000000E+00  0.00000000E+00  0.00000000E+00
  0.00000000E+00  0.00000000E+00  0.00000000E+00
  0.17290213E-02 -0.90422381E-03 -0.50918154E-02
 -0.45836539E-02  0.18349797E-01 -0.16084617E-01
  0.50852278E-02  0.11548465E-02 -0.70368428E-03
  0.33779165E+00  0.55335944E+00 -0.64959743E-01
 -0.34207693E+00 -0.59825293E+00 -0.26814294E+00
