Pt  O 
 1.0000000000000000
     9.7177920199999992    0.0000000000000000    0.0000000000000000
     0.0000000000000000   11.2211396800000003    0.0000000000000000
     0.0000000000000000    0.0000000000000000   25.0000000000000000
 Pt  O  
  64   2
Selective dynamics
Cartesian
  0.0000000000000000  0.0000000000000000  0.0000000000000000   F   F   F
  3.2392640228629768  0.0000000000000000  2.2905055204283551   F   F   F
  1.6112673808296454 11.2082662017826280  4.4724649673932850   T   T   T
  2.4294480049999998  1.4026424600000000  0.0000000000000000   F   F   F
  0.8098160178629769  1.4026424600000000  2.2905055204283551   F   F   F
  4.0532085536488474  1.4068827470615792  4.5175834144897582   T   T   T
  9.6962438853191255 11.2120923811852951  6.7641653687514847   T   T   T
  2.3701164174477118  1.3221346880549107  6.7155685655212256   T   T   T
  0.0000000000000000  2.8052849200000001  0.0000000000000000   F   F   F
  3.2392640228629768  2.8052849200000001  2.2905055204283551   F   F   F
  1.6249035626007877  2.8138806641292007  4.5139933928233225   T   T   T
  2.4294480049999998  4.2079273800000001  0.0000000000000000   F   F   F
  0.8098160178629769  4.2079273800000001  2.2905055204283551   F   F   F
  4.0542207516868203  4.2192920016311328  4.5633983028732672   T   T   T
  9.7022778406766381  2.7785555856633071  6.7647204359818840   T   T   T
  2.4229055964619772  4.1941670676939680  6.8863208909993645   T   T   T
  0.0000000000000000  5.6105698400000001  0.0000000000000000   F   F   F
  3.2392640228629768  5.6105698400000001  2.2905055204283551   F   F   F
  1.6461160705776354  5.5626340452371092  4.5565347971770374   T   T   T
  2.4294480049999998  7.0132123000000002  0.0000000000000000   F   F   F
  0.8098160178629769  7.0132123000000002  2.2905055204283551   F   F   F
  4.0691632775692685  7.0028380777255945  4.5460486855661850   T   T   T
  0.0120772283405503  5.6040741969837899  6.7698055236171228   T   T   T
  2.3935529388934129  7.0462065782989214  6.7520016301902075   T   T   T
  0.0000000000000000  8.4158547600000002  0.0000000000000000   F   F   F
  3.2392640228629768  8.4158547600000002  2.2905055204283551   F   F   F
  1.6220858903906887  8.4003820907976916  4.4857023010131050   T   T   T
  2.4294480049999998  9.8184972200000011  0.0000000000000000   F   F   F
  0.8098160178629769  9.8184972200000011  2.2905055204283551   F   F   F
  4.0387609931822182  9.8133558734201465  4.4904060887978048   T   T   T
  9.7096079403365749  8.4264056714758429  6.7640711761697503   T   T   T
  2.4123417640891285  9.8091937052919356  6.7671488025441207   T   T   T
  4.8588960099999996  0.0000000000000000  0.0000000000000000   F   F   F
  8.0981600328629764  0.0000000000000000  2.2905055204283551   F   F   F
  6.4764189692291634 11.2175233318160199  4.4953218742691101   T   T   T
  7.2883440149999998  1.4026424600000000  0.0000000000000000   F   F   F
  5.6687120278629761  1.4026424600000000  2.2905055204283551   F   F   F
  8.9001185604863089  1.4057183971628788  4.4943387192439852   T   T   T
  4.8552990060681473 11.1926437396838754  6.7618445938471456   T   T   T
  7.2884665726354703  1.3846597922883188  6.7650133180160683   T   T   T
  4.8588960099999996  2.8052849200000001  0.0000000000000000   F   F   F
  8.0981600328629764  2.8052849200000001  2.2905055204283551   F   F   F
  6.4344957259680964  2.8020754570016426  4.5482947258447473   T   T   T
  7.2883440149999998  4.2079273800000001  0.0000000000000000   F   F   F
  5.6687120278629761  4.2079273800000001  2.2905055204283551   F   F   F
  8.9027317071575656  4.2028927029098124  4.4884379883727723   T   T   T
  4.8952975052268508  2.7674325281869789  6.8565739601194053   T   T   T
  7.3439309786584479  4.2001241900733639  6.7469518950675322   T   T   T
  4.8588960099999996  5.6105698400000001  0.0000000000000000   F   F   F
  8.0981600328629764  5.6105698400000001  2.2905055204283551   F   F   F
  6.4668032397410826  5.6199892367637787  4.5381804396118497   T   T   T
  7.2883440149999998  7.0132123000000002  0.0000000000000000   F   F   F
  5.6687120278629761  7.0132123000000002  2.2905055204283551   F   F   F
  8.9283769614192394  6.9997202083098626  4.4910564057273543   T   T   T
  4.9376383615464672  5.7400910596592878  6.8372325399012723   T   T   T
  7.3542183829053718  7.0503051100641221  6.7599487674481651   T   T   T
  4.8588960099999996  8.4158547600000002  0.0000000000000000   F   F   F
  8.0981600328629764  8.4158547600000002  2.2905055204283551   F   F   F
  6.4832258126515221  8.4186648049334813  4.5005208916856869   T   T   T
  7.2883440149999998  9.8184972200000011  0.0000000000000000   F   F   F
  5.6687120278629761  9.8184972200000011  2.2905055204283551   F   F   F
  8.9089173629232228  9.8151502414817369  4.4934833495059223   T   T   T
  4.8586440915331846  8.4827442436239373  6.7737833186548340   T   T   T
  7.2978173099611281  9.8266670067428912  6.7677384687733877   T   T   T
  4.6582930195293928  5.2025816508567333  8.6119114446336891   T   T   T
  3.7716389552563188  3.5890345953324028  8.2999940081570482   T   T   T
  ! Dimer Axis Block
0 0 0
0 0 0
0 0 0
0 0 0
0 0 0
0 0 0
0 0 0
0 0 0
0 0 0
0 0 0
0 0 0
0 0 0
0 0 0
0 0 0
0 0 0
0 0 0
0 0 0
0 0 0
0 0 0
0 0 0
0 0 0
0 0 0
0 0 0
0 0 0
0 0 0
0 0 0
0 0 0
0 0 0
0 0 0
0 0 0
0 0 0
0 0 0
0 0 0
0 0 0
0 0 0
0 0 0
0 0 0
0 0 0
0 0 0
0 0 0
0 0 0
0 0 0
0 0 0
0 0 0
0 0 0
0 0 0
0 0 0
0 0 0
0 0 0
0 0 0
0 0 0
0 0 0
0 0 0
0 0 0
0 0 0
0 0 0
0 0 0
0 0 0
0 0 0
0 0 0
0 0 0
0 0 0
0 0 0
0 0 0
0.076600 0.144792 -0.017317
-0.085037 -0.149033 -0.076977
