K-Spacing Value to Generate K-Mesh: 0.020
0
Gamma
  18  18  13
0.0  0.0  0.0
