Pt  O 
 1.0000000000000000
     9.5234361795999991    0.0000000000000000    0.0000000000000000
     0.0000000000000000   11.2211396800000003    0.0000000000000000
     0.0000000000000000    0.0000000000000000   25.0000000000000000
 Pt  O  
  64   2
Selective dynamics
Cartesian
  0.0000000000000000  0.0000000000000000  0.0000000000000000   F   F   F
  3.1744787424057170  0.0000000000000000  2.2905055204283551   F   F   F
  1.6054050712345085 11.2202170696660755  4.5254913920934925   T   T   T
  2.3808590448999998  1.4026424600000000  0.0000000000000000   F   F   F
  0.7936196975057174  1.4026424600000000  2.2905055204283551   F   F   F
  3.9913822171787507  1.4287024639064851  4.5939729430310852   T   T   T
  0.0138520600755878 11.2094222657831271  6.8212727053784796   T   T   T
  2.3724285561233605  1.3870229146345308  6.8211244028411473   T   T   T
  0.0000000000000000  2.8052849200000001  0.0000000000000000   F   F   F
  3.1744787424057170  2.8052849200000001  2.2905055204283551   F   F   F
  1.5929615714198122  2.7948924703851747  4.5169065427185826   T   T   T
  2.3808590448999998  4.2079273800000001  0.0000000000000000   F   F   F
  0.7936196975057174  4.2079273800000001  2.2905055204283551   F   F   F
  3.9734534043355341  4.2078852464135714  4.5350520213276901   T   T   T
  9.5308540510120014  2.7814075262353701  6.8180471732227730   T   T   T
  2.3247599680905275  4.2077008867064780  6.7576462341778374   T   T   T
  0.0000000000000000  5.6105698400000001  0.0000000000000000   F   F   F
  3.1744787424057170  5.6105698400000001  2.2905055204283551   F   F   F
  1.5929349277593128  5.6208141304501007  4.5169091041471550   T   T   T
  2.3808590448999998  7.0132123000000002  0.0000000000000000   F   F   F
  0.7936196975057174  7.0132123000000002  2.2905055204283551   F   F   F
  3.9914563074253508  6.9869851745514708  4.5939440165413581   T   T   T
  9.5307205439681990  5.6341536725257795  6.8182321147338296   T   T   T
  2.3722728196269731  7.0283741433930640  6.8209734379150841   T   T   T
  0.0000000000000000  8.4158547600000002  0.0000000000000000   F   F   F
  3.1744787424057170  8.4158547600000002  2.2905055204283551   F   F   F
  1.6053898485478415  8.4165401897820580  4.5254961801689175   T   T   T
  2.3808590448999998  9.8184972200000011  0.0000000000000000   F   F   F
  0.7936196975057174  9.8184972200000011  2.2905055204283551   F   F   F
  3.9771761322329660  9.8183266632048323  4.5256983357616027   T   T   T
  0.0138402932683515  8.4270326449293336  6.8212619371101031   T   T   T
  2.3891739654598192  9.8181517016814652  6.8278771949298944   T   T   T
  4.7617180897999996  0.0000000000000000  0.0000000000000000   F   F   F
  7.9361968322057166  0.0000000000000000  2.2905055204283551   F   F   F
  6.3540679063719629 11.2186051874607617  4.5322031349728755   T   T   T
  7.1425771346999998  1.4026424600000000  0.0000000000000000   F   F   F
  5.5553377873057164  1.4026424600000000  2.2905055204283551   F   F   F
  8.7367203455811158  1.3983083122462436  4.5231033377050203   T   T   T
  4.7745267792860213 11.1954219845182070  6.8352107819603392   T   T   T
  7.1718386553289601  1.3800309712778078  6.8144875982947619   T   T   T
  4.7617180897999996  2.8052849200000001  0.0000000000000000   F   F   F
  7.9361968322057166  2.8052849200000001  2.2905055204283551   F   F   F
  6.3437619380662973  2.8037390212297515  4.5616723038533351   T   T   T
  7.1425771346999998  4.2079273800000001  0.0000000000000000   F   F   F
  5.5553377873057164  4.2079273800000001  2.2905055204283551   F   F   F
  8.7418923431018154  4.2079128652704192  4.5091796163081694   T   T   T
  4.7779354619292578  2.7998028201251786  6.9134468209489945   T   T   T
  7.2250123426545354  4.2077142155678739  6.7793153431712456   T   T   T
  4.7617180897999996  5.6105698400000001  0.0000000000000000   F   F   F
  7.9361968322057166  5.6105698400000001  2.2905055204283551   F   F   F
  6.3437321922419940  5.6119259651324755  4.5616813091563797   T   T   T
  7.1425771346999998  7.0132123000000002  0.0000000000000000   F   F   F
  5.5553377873057164  7.0132123000000002  2.2905055204283551   F   F   F
  8.7366994091052277  7.0174697524540006  4.5231345748645229   T   T   T
  4.7780231606392922  5.6155467613832331  6.9134768653823802   T   T   T
  7.1718632187346625  7.0352488063699852  6.8145295343722632   T   T   T
  4.7617180897999996  8.4158547600000002  0.0000000000000000   F   F   F
  7.9361968322057166  8.4158547600000002  2.2905055204283551   F   F   F
  6.3541000002927950  8.4182032049935422  4.5322278764862283   T   T   T
  7.1425771346999998  9.8184972200000011  0.0000000000000000   F   F   F
  5.5553377873057164  9.8184972200000011  2.2905055204283551   F   F   F
  8.7417539911819730  9.8184458045142602  4.5262850650528801   T   T   T
  4.7746196579956059  8.4409649646926699  6.8352422055225199   T   T   T
  7.1628817246398899  9.8183483103126488  6.8231650755195199   T   T   T
  4.7712496951056833  3.5215996603692341  8.7999184923677412   T   T   T
  4.7710295961985496  4.8933073391061255  8.7998916054865344   T   T   T
