Pt  O 
 1.0000000000000000
     9.7177920199999992    0.0000000000000000    0.0000000000000000
     0.0000000000000000   10.9967168863999998    0.0000000000000000
     0.0000000000000000    0.0000000000000000   25.0000000000000000
 Pt  O  
  64   2
Selective dynamics
Cartesian
  0.0000000000000000  0.0000000000000000  0.0000000000000000   F   F   F
  3.2392640228629763  0.0000000000000000  2.2905055204283551   F   F   F
  1.6098403078693790 10.9923789833225989  4.4816636033816000   F   F   F
  2.4294480049999994  1.3745896108000000  0.0000000000000000   F   F   F
  0.8098160178629759  1.3745896108000000  2.2905055204283551   F   F   F
  4.0500903841093212  1.3790619980487835  4.5133528736990698   F   F   F
  9.7009057285386895 10.9931543482855556  6.7737979827505592   F   F   F
  2.3806743623319973  1.3073522248326093  6.7305665446383447   F   F   F
  0.0000000000000000  2.7491792215999999  0.0000000000000000   F   F   F
  3.2392640228629763  2.7491792215999999  2.2905055204283551   F   F   F
  1.6240686137392166  2.7518746568117609  4.5114564596813072   F   F   F
  2.4294480049999994  4.1237688323999988  0.0000000000000000   F   F   F
  0.8098160178629759  4.1237688323999988  2.2905055204283551   F   F   F
  4.0620159423457469  4.1368849694299046  4.5412129608764822   F   F   F
  9.7036892973621161  2.7216773723955532  6.7669970987429151   F   F   F
  2.4077028978918218  4.1469896334389516  6.8294504402952096   F   F   F
  0.0000000000000000  5.4983584431999990  0.0000000000000000   F   F   F
  3.2392640228629763  5.4983584431999990  2.2905055204283551   F   F   F
  1.6491909636510427  5.4607010832352545  4.5407605559200448   F   F   F
  2.4294480049999994  6.8729480539999992  0.0000000000000000   F   F   F
  0.8098160178629759  6.8729480539999992  2.2905055204283551   F   F   F
  4.0790150988949865  6.8764617765428939  4.5328177659439124   F   F   F
  0.0150331882852956  5.5029887352825613  6.7629187365490075   F   F   F
  2.4109792426169596  6.9193732674677282  6.7362851493738303   F   F   F
  0.0000000000000000  8.2475376647999976  0.0000000000000000   F   F   F
  3.2392640228629763  8.2475376647999976  2.2905055204283551   F   F   F
  1.6247836677187275  8.2438871545316115  4.4804319042615024   F   F   F
  2.4294480049999994  9.6221272755999987  0.0000000000000000   F   F   F
  0.8098160178629759  9.6221272755999987  2.2905055204283551   F   F   F
  4.0412495479368422  9.6285038204663795  4.4892242861002494   F   F   F
  0.0059632956910259  8.2634249483605089  6.7662528235190171   F   F   F
  2.4166502627254847  9.6225025848197721  6.7658640272878880   F   F   F
  4.8588960099999978  0.0000000000000000  0.0000000000000000   F   F   F
  8.0981600328629746  0.0000000000000000  2.2905055204283551   F   F   F
  6.4788765969542697 10.9953835077930222  4.4984292551129696   F   F   F
  7.2883440149999990  1.3745896108000000  0.0000000000000000   F   F   F
  5.6687120278629752  1.3745896108000000  2.2905055204283551   F   F   F
  8.9007540742907842  1.3751474758601991  4.4951952987187829   F   F   F
  4.8633383077355470 10.9834775955826895  6.7636879932979719   F   F   F
  7.2973100288445165  1.3602327767332147  6.7725280218934047   F   F   F
  4.8588960099999978  2.7491792215999999  0.0000000000000000   F   F   F
  8.0981600328629746  2.7491792215999999  2.2905055204283551   F   F   F
  6.4457054204379913  2.7423663262758500  4.5412327408226076   F   F   F
  7.2883440149999990  4.1237688323999988  0.0000000000000000   F   F   F
  5.6687120278629752  4.1237688323999988  2.2905055204283551   F   F   F
  8.9141746321617390  4.1171129669706508  4.4873323158786373   F   F   F
  4.9080876531716378  2.7317399634075894  6.8230178212080643   F   F   F
  7.3523180209012287  4.1224377817513060  6.7388696199440004   F   F   F
  4.8588960099999978  5.4983584431999990  0.0000000000000000   F   F   F
  8.0981600328629746  5.4983584431999990  2.2905055204283551   F   F   F
  6.4816960275674305  5.5141322359662421  4.5293069263518397   F   F   F
  7.2883440149999990  6.8729480539999992  0.0000000000000000   F   F   F
  5.6687120278629752  6.8729480539999992  2.2905055204283551   F   F   F
  8.9367895623291194  6.8636054523646646  4.4888837321100796   F   F   F
  4.9466914677980354  5.6220642550044264  6.8045505437295501   F   F   F
  7.3679639024564807  6.9148102284845052  6.7577464247468617   F   F   F
  4.8588960099999978  8.2475376647999976  0.0000000000000000   F   F   F
  8.0981600328629746  8.2475376647999976  2.2905055204283551   F   F   F
  6.4938031833770857  8.2576904120192296  4.5004807126894821   F   F   F
  7.2883440149999990  9.6221272755999987  0.0000000000000000   F   F   F
  5.6687120278629752  9.6221272755999987  2.2905055204283551   F   F   F
  8.9127902792314639  9.6221771495745827  4.4972281289502272   F   F   F
  4.8713375172258440  8.3235201366116911  6.7639355032817203   F   F   F
  7.3065083283401036  9.6343599651199447  6.7742648550035103   F   F   F
  4.6117081686070023  5.0561006306783334  8.6036669610209948   T   T   T
  3.7172839499327464  3.5422313249272475  8.2979794431996368   T   T   T
