Pt  O 
 1.0000000000000000
     9.5234361795999991    0.0000000000000000    0.0000000000000000
     0.0000000000000000   11.2211396800000003    0.0000000000000000
     0.0000000000000000    0.0000000000000000   25.0000000000000000
 Pt  O  
  64   2
Selective dynamics
Cartesian
  0.0000000000000000  0.0000000000000000  0.0000000000000000   F   F   F
  3.1744787424057170  0.0000000000000000  2.2905055204283551   F   F   F
  1.5776435017120012 11.2167132482883272  4.4816636033816701   T   T   T
  2.3808590448999998  1.4026424600000000  0.0000000000000000   F   F   F
  0.7936196975057174  1.4026424600000000  2.2905055204283551   F   F   F
  3.9690885764271591  1.4072061204579347  4.5133528736990050   T   T   T
  9.5068876139678977 11.2175044370260402  6.7737979827505495   T   T   T
  2.3330608750853461  1.3340328824822276  6.7305665446383500   T   T   T
  0.0000000000000000  2.8052849200000001  0.0000000000000000   F   F   F
  3.1744787424057170  2.8052849200000001  2.2905055204283551   F   F   F
  1.5915872414644487  2.8080353640936000  4.5114564596813622   T   T   T
  2.3808590448999998  4.2079273800000001  0.0000000000000000   F   F   F
  0.7936196975057174  4.2079273800000001  2.2905055204283551   F   F   F
  3.9807756234988148  4.2213111932958487  4.5412129608765275   T   T   T
  9.5096155114148821  2.7772218085669262  6.7669970987429551   T   T   T
  2.3595488399339812  4.2316220749377109  6.8294504402951244   T   T   T
  0.0000000000000000  5.6105698400000001  0.0000000000000000   F   F   F
  3.1744787424057170  5.6105698400000001  2.2905055204283551   F   F   F
  1.6162071443780153  5.5721439624849589  4.5407605559200102   T   T   T
  2.3808590448999998  7.0132123000000002  0.0000000000000000   F   F   F
  0.7936196975057174  7.0132123000000002  2.2905055204283551   F   F   F
  3.9974347969171089  7.0167977311662089  4.5328177659438751   T   T   T
  0.0147325245195983  5.6152946278393712  6.7629187365490395   T   T   T
  2.3627596577646526  7.0605849668038063  6.7362851493738773   T   T   T
  0.0000000000000000  8.4158547600000002  0.0000000000000000   F   F   F
  3.1744787424057170  8.4158547600000002  2.2905055204283551   F   F   F
  1.5922879943643389  8.4121297495220233  4.4804319042615495   T   T   T
  2.3808590448999998  9.8184972200000011  0.0000000000000000   F   F   F
  0.7936196975057174  9.8184972200000011  2.2905055204283551   F   F   F
  3.9604245569781025  9.8250038984351118  4.4892242861003249   T   T   T
  0.0058440297772073  8.4320662738372683  6.7662528235191015   T   T   T
  2.3683172574709523  9.8188801885916011  6.7658640272878046   T   T   T
  4.7617180897999996  0.0000000000000000  0.0000000000000000   F   F   F
  7.9361968322057166  0.0000000000000000  2.2905055204283551   F   F   F
  6.3492990650151784 11.2197790895847156  4.4984292551129448   T   T   T
  7.1425771346999998  1.4026424600000000  0.0000000000000000   F   F   F
  5.5553377873057164  1.4026424600000000  2.2905055204283551   F   F   F
  8.7227389928049348  1.4032117100614332  4.4951952987187127   T   T   T
  4.7660715415808390 11.2076301995741563  6.7636879932980083   T   T   T
  7.1513638282676260  1.3879926293195914  6.7725280218933648   T   T   T
  4.7617180897999996  2.8052849200000001  0.0000000000000000   F   F   F
  7.9361968322057166  2.8052849200000001  2.2905055204283551   F   F   F
  6.3167913120292400  2.7983329859957800  4.5412327408225650   T   T   T
  7.1425771346999998  4.2079273800000001  0.0000000000000000   F   F   F
  5.5553377873057164  4.2079273800000001  2.2905055204283551   F   F   F
  8.7358911395185288  4.2011356805823272  4.4873323158785903   T   T   T
  4.8099259001082064  2.7874897585792064  6.8230178212081327   T   T   T
  7.2052716604831941  4.2065691650523638  6.7388696199440545   T   T   T
  4.7617180897999996  5.6105698400000001  0.0000000000000000   F   F   F
  7.9361968322057166  5.6105698400000001  2.2905055204283551   F   F   F
  6.3520621070160956  5.6266655469043352  4.5293069263518495   T   T   T
  7.1425771346999998  7.0132123000000002  0.0000000000000000   F   F   F
  5.5553377873057164  7.0132123000000002  2.2905055204283551   F   F   F
  8.7580537710825066  7.0036790330251559  4.4888837321101596   T   T   T
  4.8477576384420473  5.7368002602086188  6.8045505437295244   T   T   T
  7.2206046244073612  7.0559288045760482  6.7577464247468892   T   T   T
  4.7617180897999996  8.4158547600000002  0.0000000000000000   F   F   F
  7.9361968322057166  8.4158547600000002  2.2905055204283551   F   F   F
  6.3639271197095599  8.4262147061420993  4.5004807126895576   T   T   T
  7.1425771346999998  9.8184972200000011  0.0000000000000000   F   F   F
  5.5553377873057164  9.8184972200000011  2.2905055204283551   F   F   F
  8.7345344736468071  9.8185481118107720  4.4972281289501472   T   T   T
  4.7739107668813325  8.4933878945016890  6.7639355032817150   T   T   T
  7.1603781617733055  9.8309795562448627  6.7742648550035884   T   T   T
  4.5194740052348337  5.1592863578350538  8.6036669610209042   T   T   T
  3.6429382709340676  3.6145217601298723  8.2829794431995616   T   T   T
  ! Dimer Axis Block
0 0 0
0 0 0
0 0 0
0 0 0
0 0 0
0 0 0
0 0 0
0 0 0
0 0 0
0 0 0
0 0 0
0 0 0
0 0 0
0 0 0
0 0 0
0 0 0
0 0 0
0 0 0
0 0 0
0 0 0
0 0 0
0 0 0
0 0 0
0 0 0
0 0 0
0 0 0
0 0 0
0 0 0
0 0 0
0 0 0
0 0 0
0 0 0
0 0 0
0 0 0
0 0 0
0 0 0
0 0 0
0 0 0
0 0 0
0 0 0
0 0 0
0 0 0
0 0 0
0 0 0
0 0 0
0 0 0
0 0 0
0 0 0
0 0 0
0 0 0
0 0 0
0 0 0
0 0 0
0 0 0
0 0 0
0 0 0
0 0 0
0 0 0
0 0 0
0 0 0
0 0 0
0 0 0
0 0 0
0 0 0
-0.079432 -0.146341 0.032423
0.073449 0.148755 0.078746
