System = Pt111

ISMEAR = 1
SIGMA = 0.1
ALGO = FAST
ENCUT = 400
EDIFF = 1E-6
LREAL= .FALSE.

LDIPOL = .TRUE.
IDIPOL = 3

NWRITE = 0
LWAVE = .FALSE.
LCHARG = .FALSE.

ISYM=0
IBRION = 1
POTIM = 0.1
EDIFFG = -0.01
NSW = 50

NCORE = 4


