Pt 
 1.0000000000000000
     4.8588960099999996    0.0000000000000000    0.0000000000000000
     0.0000000000000000    2.8613906184000002    0.0000000000000000
     0.0000000000000000    0.0000000000000000   25.0000000000000036
 Pt 
   8
Selective dynamics
Cartesian
  0.0000000000000000  0.0000000000000000  0.0000000000000000   F   F   F
  3.2392640228629763  0.0000000000000000  2.2622589550182695   F   F   F
  1.6196319871370233  0.0000000000000000  4.5245179779042655   F   F   T
  2.4294480049999998  1.4306953092000001  0.0000000000000000   F   F   F
  0.8098160178629764  1.4306953092000001  2.2622589550182695   F   F   F
  4.0490799921370231  1.4306953092000001  4.5245179779042655   F   F   T
  0.0000000000000000  0.0000000000000000  6.7867769329225345   F   F   T
  2.4294480049999998  1.4306953092000001  6.7867769329225345   F   F   T
