Pt  O 
 1.0000000000000000
     9.5234361795999991    0.0000000000000000    0.0000000000000000
     0.0000000000000000   11.2211396800000003    0.0000000000000000
     0.0000000000000000    0.0000000000000000   25.0000000000000000
 Pt  O  
  64   2
Selective dynamics
Cartesian
  0.0000000000000000  0.0000000000000000  0.0000000000000000   F   F   F
  3.1744787424057170  0.0000000000000000  2.2905055204283551   F   F   F
  1.6016482302331414 -0.0030340237994998  4.6382959089801306   T   T   T
  2.3808590448999993  1.4026424600000000  0.0000000000000000   F   F   F
  0.7936196975057173  1.4026424600000000  2.2905055204283551   F   F   F
  3.9918155912553508  1.4335315393664880  4.6382959089801306   T   T   T
  0.0094394227836892 -0.0136012265048176  6.9574438286829992   T   T   T
  2.3607571239926366  1.3880228354911979  6.9574438286829992   T   T   T
  0.0000000000000000  2.8052849200000001  0.0000000000000000   F   F   F
  3.1744787424057170  2.8052849200000001  2.2905055204283551   F   F   F
  1.5889545974954169  2.7950180690570554  4.6382959089801306   T   T   T
  2.3808590448999993  4.2079273800000001  0.0000000000000000   F   F   F
  0.7936196975057173  4.2079273800000001  2.2905055204283551   F   F   F
  3.9665083671189847  4.2077940634639841  4.6382959089801306   T   T   T
 -0.0003332462823168  2.7806401430679140  6.9574438286829992   T   T   T
  2.3040557990811412  4.2078174545317255  6.9574438286829992   T   T   T
  0.0000000000000000  5.6105698400000001  0.0000000000000000   F   F   F
  3.1744787424057170  5.6105698400000001  2.2905055204283551   F   F   F
  1.5890254573424372  5.6207312146549402  4.6382959089801306   T   T   T
  2.3808590448999993  7.0132123000000002  0.0000000000000000   F   F   F
  0.7936196975057173  7.0132123000000002  2.2905055204283551   F   F   F
  3.9917817402723403  6.9821236385883187  4.6382959089801306   T   T   T
 -0.0004452506082453  5.6349106569949008  6.9574438286829992   T   T   T
  2.3606854600638498  7.0274451469082466  6.9574438286829992   T   T   T
  0.0000000000000000  8.4158547600000002  0.0000000000000000   F   F   F
  3.1744787424057170  8.4158547600000002  2.2905055204283551   F   F   F
  1.6016505178671856  8.4187892023295099  4.6382959089801306   T   T   T
  2.3808590448999993  9.8184972200000011  0.0000000000000000   F   F   F
  0.7936196975057173  9.8184972200000011  2.2905055204283551   F   F   F
  3.9758885787156695  9.8184156050087541  4.6382959089801306   T   T   T
  0.0094158609966515  8.4292767240801059  6.9574438286829992   T   T   T
  2.3853487120885228  9.8183988505688369  6.9574438286829992   T   T   T
  4.7617180897999987  0.0000000000000000  0.0000000000000000   F   F   F
  7.9361968322057157  0.0000000000000000  2.2905055204283551   F   F   F
  6.3501965974648895 -0.0012503973110572  4.6382959089801306   T   T   T
  7.1425771346999989  1.4026424600000000  0.0000000000000000   F   F   F
  5.5553377873057155  1.4026424600000000  2.2905055204283551   F   F   F
  8.7358712529568638  1.3976140791755836  4.6382959089801306   T   T   T
  4.7658929073379932 -0.0271933339018464  6.9574438286829992   T   T   T
  7.1696898822882247  1.3824599207555022  6.9574438286829992   T   T   T
  4.7617180897999987  2.8052849200000001  0.0000000000000000   F   F   F
  7.9361968322057157  2.8052849200000001  2.2905055204283551   F   F   F
  6.3364384531045346  2.8057536200995559  4.6382959089801306   T   T   T
  7.1425771346999989  4.2079273800000001  0.0000000000000000   F   F   F
  5.5553377873057155  4.2079273800000001  2.2905055204283551   F   F   F
  8.7423530025721696  4.2079002994498644  4.6382959089801306   T   T   T
  4.7673606756641984  2.7955074168281473  6.9574438286829992   T   T   T
  7.2286070798619821  4.2078634763983080  6.9574438286829992   T   T   T
  4.7617180897999987  5.6105698400000001  0.0000000000000000   F   F   F
  7.9361968322057157  5.6105698400000001  2.2905055204283551   F   F   F
  6.3363389902283416  5.6099147797012456  4.6382959089801306   T   T   T
  7.1425771346999989  7.0132123000000002  0.0000000000000000   F   F   F
  5.5553377873057155  7.0132123000000002  2.2905055204283551   F   F   F
  8.7358006914247373  7.0180840162856830  4.6382959089801306   T   T   T
  4.7672439602721699  5.6198305163911719  6.9574438286829992   T   T   T
  7.1695785633103366  7.0331217547182154  6.9574438286829992   T   T   T
  4.7617180897999987  8.4158547600000002  0.0000000000000000   F   F   F
  7.9361968322057157  8.4158547600000002  2.2905055204283551   F   F   F
  6.3501217650739674  8.4171341473072516  4.6382959089801306   T   T   T
  7.1425771346999989  9.8184972200000011  0.0000000000000000   F   F   F
  5.5553377873057155  9.8184972200000011  2.2905055204283551   F   F   F
  8.7387446794643626  9.8184055447818164  4.6382959089801306   T   T   T
  4.7657645708356489  8.4426363742555175  6.9574438286829992   T   T   T
  7.1568705637732055  9.8183142737435745  6.9574438286829992   T   T   T
  4.7680766234851530  3.5210710950043218  8.7226877243450822   T   T   T
  4.7677743078838759  4.8940665062475892  8.7228134461276152   T   T   T
