Pt  O 
 1.0000000000000000
     9.9121478603999993    0.0000000000000000    0.0000000000000000
     0.0000000000000000   11.2211396800000003    0.0000000000000000
     0.0000000000000000    0.0000000000000000   25.0000000000000000
 Pt  O  
  64   2
Selective dynamics
Cartesian
  0.0000000000000000  0.0000000000000000  0.0000000000000000   F   F   F
  3.3040493033202365  0.0000000000000000  2.2905055204283551   F   F   F
  1.6670216273855147 -0.0030340237994998  4.6382959089801306   T   T   T
  2.4780369650999998  1.4026424600000000  0.0000000000000000   F   F   F
  0.8260123382202365  1.4026424600000000  2.2905055204283551   F   F   F
  4.1547468398780190  1.4335315393664880  4.6382959089801306   T   T   T
  0.0098247053462888 -0.0136012265048176  6.9574438286829992   T   T   T
  2.4571145576249895  1.3880228354911979  6.9574438286829992   T   T   T
  0.0000000000000000  2.8052849200000001  0.0000000000000000   F   F   F
  3.3040493033202365  2.8052849200000001  2.2905055204283551   F   F   F
  1.6538098871891076  2.7950180690570554  4.6382959089801306   T   T   T
  2.4780369650999998  4.2079273800000001  0.0000000000000000   F   F   F
  0.8260123382202365  4.2079273800000001  2.2905055204283551   F   F   F
  4.1284066678177194  4.2077940634639841  4.6382959089801306   T   T   T
 -0.0003468481713910  2.7806401430679140  6.9574438286829992   T   T   T
  2.3980988929211882  4.2078174545317255  6.9574438286829992   T   T   T
  0.0000000000000000  5.6105698400000001  0.0000000000000000   F   F   F
  3.3040493033202365  5.6105698400000001  2.2905055204283551   F   F   F
  1.6538836392747818  5.6207312146549402  4.6382959089801306   T   T   T
  2.4780369650999998  7.0132123000000002  0.0000000000000000   F   F   F
  0.8260123382202365  7.0132123000000002  2.2905055204283551   F   F   F
  4.1547116072222323  6.9821236385883187  4.6382959089801306   T   T   T
 -0.0004634241024594  5.6349106569949008  6.9574438286829992   T   T   T
  2.4570399686378850  7.0274451469082466  6.9574438286829992   T   T   T
  0.0000000000000000  8.4158547600000002  0.0000000000000000   F   F   F
  3.3040493033202365  8.4158547600000002  2.2905055204283551   F   F   F
  1.6670240083923771  8.4187892023295099  4.6382959089801306   T   T   T
  2.4780369650999998  9.8184972200000011  0.0000000000000000   F   F   F
  0.8260123382202365  9.8184972200000011  2.2905055204283551   F   F   F
  4.1381697451938608  9.8184156050087541  4.6382959089801306   T   T   T
  0.0098001818536577  8.4292767240801059  6.9574438286829992   T   T   T
  2.4827098840105037  9.8183988505688369  6.9574438286829992   T   T   T
  4.9560739301999996  0.0000000000000000  0.0000000000000000   F   F   F
  8.2601232335202361  0.0000000000000000  2.2905055204283551   F   F   F
  6.6093882953206009 -0.0012503973110572  4.6382959089801306   T   T   T
  7.4341108952999999  1.4026424600000000  0.0000000000000000   F   F   F
  5.7820862684202359  1.4026424600000000  2.2905055204283551   F   F   F
  9.0924374265469403  1.3976140791755836  4.6382959089801306   T   T   T
  4.9604191484538305 -0.0271933339018464  6.9574438286829992   T   T   T
  7.4623302856469289  1.3824599207555022  6.9574438286829992   T   T   T
  4.9560739301999996  2.8052849200000001  0.0000000000000000   F   F   F
  8.2601232335202361  2.8052849200000001  2.2905055204283551   F   F   F
  6.5950685940475777  2.8057536200995559  4.6382959089801306   T   T   T
  7.4341108952999999  4.2079273800000001  0.0000000000000000   F   F   F
  5.7820862684202359  4.2079273800000001  2.2905055204283551   F   F   F
  9.0991837373710354  4.2079002994498644  4.6382959089801306   T   T   T
  4.9619468256913093  2.7955074168281473  6.9574438286829992   T   T   T
  7.5236522667951258  4.2078634763983080  6.9574438286829992   T   T   T
  4.9560739301999996  5.6105698400000001  0.0000000000000000   F   F   F
  8.2601232335202361  5.6105698400000001  2.2905055204283551   F   F   F
  6.5949650714621528  5.6099147797012456  4.6382959089801306   T   T   T
  7.4341108952999999  7.0132123000000002  0.0000000000000000   F   F   F
  5.7820862684202359  7.0132123000000002  2.2905055204283551   F   F   F
  9.0923639849522786  7.0180840162856830  4.6382959089801306   T   T   T
  4.9618253464057283  5.6198305163911719  6.9574438286829992   T   T   T
  7.4622144230372909  7.0331217547182154  6.9574438286829992   T   T   T
  4.9560739301999996  8.4158547600000002  0.0000000000000000   F   F   F
  8.2601232335202361  8.4158547600000002  2.2905055204283551   F   F   F
  6.6093104085463752  8.4171341473072516  4.6382959089801306   T   T   T
  7.4341108952999999  9.8184972200000011  0.0000000000000000   F   F   F
  5.7820862684202359  9.8184972200000011  2.2905055204283551   F   F   F
  9.0954281357690316  9.8184055447818164  4.6382959089801306   T   T   T
  4.9602855737269005  8.4426363742555175  6.9574438286829992   T   T   T
  7.4489877296415008  9.8183142737435745  6.9574438286829992   T   T   T
  4.9626919958723033  3.5210710950043218  8.7226877243450822   T   T   T
  4.9623773408587288  4.8940665062475892  8.7228134461276152   T   T   T
