Pt  O 
 1.0000000000000000
     9.5234361795999991    0.0000000000000000    0.0000000000000000
     0.0000000000000000   11.2211396800000003    0.0000000000000000
     0.0000000000000000    0.0000000000000000   25.0000000000000000
 Pt  O  
  64   2
Selective dynamics
Cartesian
  0.0000000000000000  0.0000000000000000  0.0000000000000000   F   F   F
  3.1744787424057170  0.0000000000000000  2.2905055204283551   F   F   F
  1.6022476535290722  0.0317283537603695  4.6172033433845501   T   T   T
  2.3808590448999998  1.4026424600000000  0.0000000000000000   F   F   F
  0.7936196975057174  1.4026424600000000  2.2905055204283551   F   F   F
  3.9728553466586431  1.4113956018652762  4.5950149744039903   T   T   T
  9.4851419623285391 11.2005509388813902  6.9304069528930272   T   T   T
  2.3246256083370467  1.2718987494568321  6.9619225211794520   T   T   T
  0.0000000000000000  2.8052849200000001  0.0000000000000000   F   F   F
  3.1744787424057170  2.8052849200000001  2.2905055204283551   F   F   F
  1.6112099686535157  2.8322921580850537  4.6311774389468479   T   T   T
  2.3808590448999998  4.2079273800000001  0.0000000000000000   F   F   F
  0.7936196975057174  4.2079273800000001  2.2905055204283551   F   F   F
  3.9774276048230868  4.2079342816978880  4.6191949125636578   T   T   T
  9.4709972759355363  2.7766652987314844  6.8876237150555752   T   T   T
  2.2583509673351729  4.2079075332390214  7.0280236367711897   T   T   T
  0.0000000000000000  5.6105698400000001  0.0000000000000000   F   F   F
  3.1744787424057170  5.6105698400000001  2.2905055204283551   F   F   F
  1.6111988265637223  5.5835179883096897  4.6311327286211030   T   T   T
  2.3808590448999998  7.0132123000000002  0.0000000000000000   F   F   F
  0.7936196975057174  7.0132123000000002  2.2905055204283551   F   F   F
  3.9728798462941324  7.0044852221463501  4.5950713285166902   T   T   T
  9.4709997849891554  5.6391492565616241  6.8875909436514675   T   T   T
  2.3246776319705087  7.1439535432961696  6.9619224293757371   T   T   T
  0.0000000000000000  8.4158547600000002  0.0000000000000000   F   F   F
  3.1744787424057170  8.4158547600000002  2.2905055204283551   F   F   F
  1.6022666854653569  8.3841613175900065  4.6171888860228778   T   T   T
  2.3808590448999998  9.8184972200000011  0.0000000000000000   F   F   F
  0.7936196975057174  9.8184972200000011  2.2905055204283551   F   F   F
  3.9606705352596183  9.8184987925900771  4.5689562216790653   T   T   T
  9.4851133107554855  8.4364171822624652  6.9303164816545806   T   T   T
  2.3590542908236536  9.8184626514247988  6.9220191465118406   T   T   T
  4.7617180897999996  0.0000000000000000  0.0000000000000000   F   F   F
  7.9361968322057166  0.0000000000000000  2.2905055204283551   F   F   F
  6.3559717178631105 11.2187021275714738  4.5694464495149427   T   T   T
  7.1425771346999998  1.4026424600000000  0.0000000000000000   F   F   F
  5.5553377873057164  1.4026424600000000  2.2905055204283551   F   F   F
  8.7339742143723189  1.4093654529963393  4.5722027486002581   T   T   T
  4.7878834071108844 11.1817372555136298  6.8852617195996046   T   T   T
  7.1588135268426019  1.3612547971499909  6.9275076229197099   T   T   T
  4.7617180897999996  2.8052849200000001  0.0000000000000000   F   F   F
  7.9361968322057166  2.8052849200000001  2.2905055204283551   F   F   F
  6.3321210313472474  2.8025539397168782  4.6318307694592180   T   T   T
  7.1425771346999998  4.2079273800000001  0.0000000000000000   F   F   F
  5.5553377873057164  4.2079273800000001  2.2905055204283551   F   F   F
  8.7245174538866710  4.2079209279649126  4.5676234170243770   T   T   T
  4.8710903683170539  2.7754545204266607  6.9686245904650432   T   T   T
  7.1781629920049550  4.2079407194328020  6.9225177604768344   T   T   T
  4.7617180897999996  5.6105698400000001  0.0000000000000000   F   F   F
  7.9361968322057166  5.6105698400000001  2.2905055204283551   F   F   F
  6.3321371119333110  5.6133302988117668  4.6318956287406152   T   T   T
  7.1425771346999998  7.0132123000000002  0.0000000000000000   F   F   F
  5.5553377873057164  7.0132123000000002  2.2905055204283551   F   F   F
  8.7339846153707601  7.0064753640850297  4.5722329118361174   T   T   T
  4.8710869995495569  5.6403564576776679  6.9686644555700674   T   T   T
  7.1587908618509770  7.0546442999017192  6.9275584038260822   T   T   T
  4.7617180897999996  8.4158547600000002  0.0000000000000000   F   F   F
  7.9361968322057166  8.4158547600000002  2.2905055204283551   F   F   F
  6.3560128229287196  8.4183484135612296  4.5694579640305601   T   T   T
  7.1425771346999998  9.8184972200000011  0.0000000000000000   F   F   F
  5.5553377873057164  9.8184972200000011  2.2905055204283551   F   F   F
  8.7559551145971213  9.8185313814407529  4.5725685218239578   T   T   T
  4.7878788101875802  8.4552872039320679  6.8852555268307327   T   T   T
  7.1556216614541901  9.8185347131520864  6.9152566896805041   T   T   T
  3.1951388630465849  2.6992003132147047  8.1127277013218979   T   T   T
  3.1951092156215326  5.7166338501931477  8.1127302500675569   T   T   T
