Pt  O 
 1.0000000000000000
     9.7177920199999992    0.0000000000000000    0.0000000000000000
     0.0000000000000000   11.2211396800000003    0.0000000000000000
     0.0000000000000000    0.0000000000000000   25.0000000000000000
 Pt  O  
  64   2
Selective dynamics
Cartesian
  0.0000000000000000  0.0000000000000000  0.0000000000000000   F   F   F
  3.2392640228629768  0.0000000000000000  2.2905055204283551   F   F   F
  1.6300801306710306  0.0234601225886416  4.5147169038023751   T   T   T
  2.4294480049999998  1.4026424600000000  0.0000000000000000   F   F   F
  0.8098160178629769  1.4026424600000000  2.2905055204283551   F   F   F
  4.0471441626229927  1.4194189799095445  4.5199840161507048   T   T   T
 -0.0373559115455136 -0.0200510571472678  6.7672597275713109   T   T   T
  2.3623981809962107  1.2628573096309650  6.8057589043769795   T   T   T
  0.0000000000000000  2.8052849200000001  0.0000000000000000   F   F   F
  3.2392640228629768  2.8052849200000001  2.2905055204283551   F   F   F
  1.6396122885591204  2.8264992710365893  4.5402399741766724   T   T   T
  2.4294480049999998  4.2079273800000001  0.0000000000000000   F   F   F
  0.8098160178629769  4.2079273800000001  2.2905055204283551   F   F   F
  4.0444411808486720  4.2079273800000001  4.5567654569356604   T   T   T
 -0.0558423301988467  2.7760472861242715  6.7414808006093576   T   T   T
  2.2674275499204750  4.2079273800000001  6.8806720401325903   T   T   T
  0.0000000000000000  5.6105698400000001  0.0000000000000000   F   F   F
  3.2392640228629768  5.6105698400000001  2.2905055204283551   F   F   F
  1.6396122885591204  5.5893554889634105  4.5402399741766724   T   T   T
  2.4294480049999998  7.0132123000000002  0.0000000000000000   F   F   F
  0.8098160178629769  7.0132123000000002  2.2905055204283551   F   F   F
  4.0471441626229927  6.9964357800904589  4.5199840161507048   T   T   T
 -0.0558423301988467  5.6398074738757229  6.7414808006093576   T   T   T
  2.3623981809962107  7.1529974503690301  6.8057589043769795   T   T   T
  0.0000000000000000  8.4158547600000002  0.0000000000000000   F   F   F
  3.2392640228629768  8.4158547600000002  2.2905055204283551   F   F   F
  1.6300801306710306  8.3923946374113498  4.5147169038023751   T   T   T
  2.4294480049999998  9.8184972200000011  0.0000000000000000   F   F   F
  0.8098160178629769  9.8184972200000011  2.2905055204283551   F   F   F
  4.0428774463261554  9.8184972200000011  4.4901092774865923   T   T   T
 -0.0373559115455136  8.4359058171472707  6.7672597275713109   T   T   T
  2.4059924959804233  9.8184972200000011  6.7641277555409367   T   T   T
  4.8588960099999996  0.0000000000000000  0.0000000000000000   F   F   F
  8.0981600328629764  0.0000000000000000  2.2905055204283551   F   F   F
  6.4802267154973876 -0.0003109299951490  4.4846382077598204   T   T   T
  7.2883440149999998  1.4026424600000000  0.0000000000000000   F   F   F
  5.6687120278629761  1.4026424600000000  2.2905055204283551   F   F   F
  8.9104767801348501  1.4063486139944730  4.4837716256107898   T   T   T
  4.8880701118374787 -0.0311170185895512  6.7387700539190449   T   T   T
  7.3157638476689177  1.3621402650509824  6.7666097928043927   T   T   T
  4.8588960099999996  2.8052849200000001  0.0000000000000000   F   F   F
  8.0981600328629764  2.8052849200000001  2.2905055204283551   F   F   F
  6.4599526156649532  2.8037701015327783  4.5248281730087747   T   T   T
  7.2883440149999998  4.2079273800000001  0.0000000000000000   F   F   F
  5.6687120278629761  4.2079273800000001  2.2905055204283551   F   F   F
  8.9028861213708179  4.2079273800000001  4.4817420334125098   T   T   T
  5.0027486144773095  2.7846429893871525  6.8238500144806604   T   T   T
  7.3360760537415279  4.2079273800000001  6.7613544077299252   T   T   T
  4.8588960099999996  5.6105698400000001  0.0000000000000000   F   F   F
  8.0981600328629764  5.6105698400000001  2.2905055204283551   F   F   F
  6.4599526156649532  5.6120846584672357  4.5248281730087747   T   T   T
  7.2883440149999998  7.0132123000000002  0.0000000000000000   F   F   F
  5.6687120278629761  7.0132123000000002  2.2905055204283551   F   F   F
  8.9104767801348501  7.0095061460055259  4.4837716256107898   T   T   T
  5.0027486144773095  5.6312117706128451  6.8238500144806604   T   T   T
  7.3157638476689177  7.0537144949490083  6.7666097928043927   T   T   T
  4.8588960099999996  8.4158547600000002  0.0000000000000000   F   F   F
  8.0981600328629764  8.4158547600000002  2.2905055204283551   F   F   F
  6.4802267154973876  8.4161656899951538  4.4846382077598204   T   T   T
  7.2883440149999998  9.8184972200000011  0.0000000000000000   F   F   F
  5.6687120278629761  9.8184972200000011  2.2905055204283551   F   F   F
  8.9264182102507679  9.8184972200000011  4.4806029859032144   T   T   T
  4.8880701118374787  8.4469717785895515  6.7387700539190449   T   T   T
  7.3027021052698471  9.8184972200000011  6.7564211206759675   T   T   T
  3.2770649389893851  2.7081051771550015  7.9062229023013897   T   T   T
  3.2770649389893851  5.7077495828450004  7.9062229023013897   T   T   T
