Pt  O 
 1.0000000000000000
     9.7177920199999992    0.0000000000000000    0.0000000000000000
     0.0000000000000000   10.9967168863999998    0.0000000000000000
     0.0000000000000000    0.0000000000000000   25.0000000000000000
 Pt  O  
  64   2
Selective dynamics
Cartesian
  0.0000000000000000  0.0000000000000000  0.0000000000000000   F   F   F
  3.2392640228629768  0.0000000000000000  2.2905055204283551   F   F   F
  1.6299369405797020  0.0251331941066686  4.6216095645634976   T   T   T
  2.4294480049999998  1.3745896108000000  0.0000000000000000   F   F   F
  0.8098160178629769  1.3745896108000000  2.2905055204283551   F   F   F
  4.0449605395781516  1.3838615509749310  4.5971788710207999   T   T   T
  9.6828046173166964 10.9854719976956829  6.9357650668058168   T   T   T
  2.3669802469948138  1.2611281025134053  6.9577644949859270   T   T   T
  0.0000000000000000  2.7491792215999999  0.0000000000000000   F   F   F
  3.2392640228629768  2.7491792215999999  2.2905055204283551   F   F   F
  1.6307287026972492  2.7734905938897034  4.6277376850497332   T   T   T
  2.4294480049999998  4.1237688323999997  0.0000000000000000   F   F   F
  0.8098160178629769  4.1237688323999997  2.2905055204283551   F   F   F
  4.0442143542076314  4.1239934647299785  4.6297629980899346   T   T   T
  9.6617645936898704  2.7322742194578407  6.8988317144631619   T   T   T
  2.2988036358058426  4.1238156187176660  7.0464151862589475   T   T   T
  0.0000000000000000  5.4983584431999999  0.0000000000000000   F   F   F
  3.2392640228629768  5.4983584431999999  2.2905055204283551   F   F   F
  1.6321965661134279  5.4760703945244611  4.6295291247215999   T   T   T
  2.4294480049999998  6.8729480540000001  0.0000000000000000   F   F   F
  0.8098160178629769  6.8729480540000001  2.2905055204283551   F   F   F
  4.0473414127486276  6.8646868319968286  4.5982243660152102   T   T   T
  9.6614512627808224  5.5134238251788963  6.8993684427607267   T   T   T
  2.3685665866687469  6.9852228247238166  6.9581360553701330   T   T   T
  0.0000000000000000  8.2475376647999994  0.0000000000000000   F   F   F
  3.2392640228629768  8.2475376647999994  2.2905055204283551   F   F   F
  1.6302834421878796  8.2202454538889231  4.6214329259005007   T   T   T
  2.4294480049999998  9.6221272756000005  0.0000000000000000   F   F   F
  0.8098160178629769  9.6221272756000005  2.2905055204283551   F   F   F
  4.0399919981574994  9.6220959496446774  4.5778630256852226   T   T   T
  9.6834302763263906  8.2582443837424595  6.9361319688579917   T   T   T
  2.4107336217279376  9.6215882172679272  6.9335722048217825   T   T   T
  4.8588960099999996  0.0000000000000000  0.0000000000000000   F   F   F
  8.0981600328629764  0.0000000000000000  2.2905055204283551   F   F   F
  6.4836818244839467 10.9972970061239348  4.5745075595752525   T   T   T
  7.2883440149999998  1.3745896108000000  0.0000000000000000   F   F   F
  5.6687120278629761  1.3745896108000000  2.2905055204283551   F   F   F
  8.9078311570618034  1.3779165144412118  4.5764775142871672   T   T   T
  4.8911225510537770 10.9698036567899795  6.8816075679650828   T   T   T
  7.3172619646387709  1.3444869332111631  6.9381320424947406   T   T   T
  4.8588960099999996  2.7491792215999999  0.0000000000000000   F   F   F
  8.0981600328629764  2.7491792215999999  2.2905055204283551   F   F   F
  6.4555230451714589  2.7485277363139966  4.6284565289386874   T   T   T
  7.2883440149999998  4.1237688323999997  0.0000000000000000   F   F   F
  5.6687120278629761  4.1237688323999997  2.2905055204283551   F   F   F
  8.8927365168876520  4.1240891603481353  4.5710626078553149   T   T   T
  4.9948234985374826  2.7264103850557557  6.9765482966000896   T   T   T
  7.3347780537976695  4.1238893288322043  6.9397784731060677   T   T   T
  4.8588960099999996  5.4983584431999999  0.0000000000000000   F   F   F
  8.0981600328629764  5.4983584431999999  2.2905055204283551   F   F   F
  6.4560880545234598  5.4989774961896813  4.6289906046361882   T   T   T
  7.2883440149999998  6.8729480540000001  0.0000000000000000   F   F   F
  5.6687120278629761  6.8729480540000001  2.2905055204283551   F   F   F
  8.9083160745374244  6.8699530688239490  4.5773702957507201   T   T   T
  4.9955464136433729  5.5200370446244253  6.9786128860767569   T   T   T
  7.3166874824777111  6.9049410240669360  6.9373384990383675   T   T   T
  4.8588960099999996  8.2475376647999994  0.0000000000000000   F   F   F
  8.0981600328629764  8.2475376647999994  2.2905055204283551   F   F   F
  6.4853601929749685  8.2478588185570274  4.5747456783455451   T   T   T
  7.2883440149999998  9.6221272756000005  0.0000000000000000   F   F   F
  5.6687120278629761  9.6221272756000005  2.2905055204283551   F   F   F
  8.9322687187969656  9.6220781259947010  4.5779965288743298   T   T   T
  4.8919754714757815  8.2769281489778184  6.8824432725970182   T   T   T
  7.3087391107189230  9.6224885695423765  6.9159364905785505   T   T   T
  3.3015479407845145  2.6431469371483285  8.1060412339821042   T   T   T
  3.3016263220562378  5.6020081229864127  8.1067771588012896   T   T   T
