Pt  O 
 1.0000000000000000
     9.9121478603999993    0.0000000000000000    0.0000000000000000
     0.0000000000000000   11.2211396800000003    0.0000000000000000
     0.0000000000000000    0.0000000000000000   25.0000000000000000
 Pt  O  
  64   2
Selective dynamics
Cartesian
  0.0000000000000000  0.0000000000000000  0.0000000000000000   F   F   F
  3.3040493033202365  0.0000000000000000  2.2905055204283551   F   F   F
  1.6626817332844512  0.0234601225886416  4.5245179779042655   T   T   T
  2.4780369650999998  1.4026424600000000  0.0000000000000000   F   F   F
  0.8260123382202365  1.4026424600000000  2.2905055204283551   F   F   F
  4.1280870458754526  1.4194189799095445  4.5245179779042655   T   T   T
 -0.0381030297764239 -0.0200510571472678  6.7867769329225345   T   T   T
  2.4096461446161350  1.2628573096309650  6.7867769329225345   T   T   T
  0.0000000000000000  2.8052849200000001  0.0000000000000000   F   F   F
  3.3040493033202365  2.8052849200000001  2.2905055204283551   F   F   F
  1.6724045343303029  2.8264992710365893  4.5245179779042655   T   T   T
  2.4780369650999998  4.2079273800000001  0.0000000000000000   F   F   F
  0.8260123382202365  4.2079273800000001  2.2905055204283551   F   F   F
  4.1253300044656456  4.2079273800000001  4.5245179779042655   T   T   T
 -0.0569591768028236  2.7760472861242715  6.7867769329225345   T   T   T
  2.3127761009188847  4.2079273800000001  6.7867769329225345   T   T   T
  0.0000000000000000  5.6105698400000001  0.0000000000000000   F   F   F
  3.3040493033202365  5.6105698400000001  2.2905055204283551   F   F   F
  1.6724045343303029  5.5893554889634105  4.5245179779042655   T   T   T
  2.4780369650999998  7.0132123000000002  0.0000000000000000   F   F   F
  0.8260123382202365  7.0132123000000002  2.2905055204283551   F   F   F
  4.1280870458754526  6.9964357800904589  4.5245179779042655   T   T   T
 -0.0569591768028236  5.6398074738757229  6.7867769329225345   T   T   T
  2.4096461446161350  7.1529974503690301  6.7867769329225345   T   T   T
  0.0000000000000000  8.4158547600000002  0.0000000000000000   F   F   F
  3.3040493033202365  8.4158547600000002  2.2905055204283551   F   F   F
  1.6626817332844512  8.3923946374113498  4.5245179779042655   T   T   T
  2.4780369650999998  9.8184972200000011  0.0000000000000000   F   F   F
  0.8260123382202365  9.8184972200000011  2.2905055204283551   F   F   F
  4.1237349952526783  9.8184972200000011  4.5245179779042655   T   T   T
 -0.0381030297764239  8.4359058171472707  6.7867769329225345   T   T   T
  2.4541123459000320  9.8184972200000011  6.7867769329225345   T   T   T
  4.9560739301999996  0.0000000000000000  0.0000000000000000   F   F   F
  8.2601232335202361  0.0000000000000000  2.2905055204283551   F   F   F
  6.6098312498073355 -0.0003109299951490  4.5245179779042655   T   T   T
  7.4341108952999999  1.4026424600000000  0.0000000000000000   F   F   F
  5.7820862684202359  1.4026424600000000  2.2905055204283551   F   F   F
  9.0886863157375473  1.4063486139944730  4.5245179779042655   T   T   T
  4.9858315140742286 -0.0311170185895512  6.7867769329225345   T   T   T
  7.4620791246222966  1.3621402650509824  6.7867769329225345   T   T   T
  4.9560739301999996  2.8052849200000001  0.0000000000000000   F   F   F
  8.2601232335202361  2.8052849200000001  2.2905055204283551   F   F   F
  6.5891516679782525  2.8037701015327783  4.5245179779042655   T   T   T
  7.4341108952999999  4.2079273800000001  0.0000000000000000   F   F   F
  5.7820862684202359  4.2079273800000001  2.2905055204283551   F   F   F
  9.0809438437982344  4.2079273800000001  4.5245179779042655   T   T   T
  5.1028035867668553  2.7846429893871525  6.7867769329225345   T   T   T
  7.4827975748163587  4.2079273800000001  6.7867769329225345   T   T   T
  4.9560739301999996  5.6105698400000001  0.0000000000000000   F   F   F
  8.2601232335202361  5.6105698400000001  2.2905055204283551   F   F   F
  6.5891516679782525  5.6120846584672357  4.5245179779042655   T   T   T
  7.4341108952999999  7.0132123000000002  0.0000000000000000   F   F   F
  5.7820862684202359  7.0132123000000002  2.2905055204283551   F   F   F
  9.0886863157375473  7.0095061460055259  4.5245179779042655   T   T   T
  5.1028035867668553  5.6312117706128451  6.7867769329225345   T   T   T
  7.4620791246222966  7.0537144949490083  6.7867769329225345   T   T   T
  4.9560739301999996  8.4158547600000002  0.0000000000000000   F   F   F
  8.2601232335202361  8.4158547600000002  2.2905055204283551   F   F   F
  6.6098312498073355  8.4161656899951538  4.5245179779042655   T   T   T
  7.4341108952999999  9.8184972200000011  0.0000000000000000   F   F   F
  5.7820862684202359  9.8184972200000011  2.2905055204283551   F   F   F
  9.1049465744557843  9.8184972200000011  4.5245179779042655   T   T   T
  4.9858315140742286  8.4469717785895515  6.7867769329225345   T   T   T
  7.4487561473752439  9.8184972200000011  6.7867769329225345   T   T   T
  3.3426062377691728  2.7081051771550015  7.9062229023013897   T   T   T
  3.3426062377691728  5.7077495828450004  7.9062229023013897   T   T   T
