Pt                                      
   1.00000000000000     
     4.7617180897999996    0.0000000000000000    0.0000000000000000
     0.0000000000000000    2.8052849200000001    0.0000000000000000
     0.0000000000000000    0.0000000000000000   24.9999999999999964
   Pt
     8
Selective dynamics
Direct
  0.0000000000000000  0.0000000000000000  0.0000000000000000   F   F   F
  0.6666666699999979  0.0000000000000000  0.0927659167881174   F   F   F
  0.3333333300000021  0.0000000000000000  0.1848653198864914   F   F   T
  0.5000000000000000  0.5000000000000000  0.0000000000000000   F   F   F
  0.1666666699999979  0.5000000000000000  0.0927659167881174   F   F   F
  0.8333333300000021  0.5000000000000000  0.1848657965351868   F   F   T
  0.0000000000000000  0.0000000000000000  0.2780148146681706   F   F   T
  0.5000000000000000  0.5000000000000000  0.2780126389085888   F   F   T
 
  0.00000000E+00  0.00000000E+00  0.00000000E+00
  0.00000000E+00  0.00000000E+00  0.00000000E+00
  0.00000000E+00  0.00000000E+00  0.00000000E+00
  0.00000000E+00  0.00000000E+00  0.00000000E+00
  0.00000000E+00  0.00000000E+00  0.00000000E+00
  0.00000000E+00  0.00000000E+00  0.00000000E+00
  0.00000000E+00  0.00000000E+00  0.00000000E+00
  0.00000000E+00  0.00000000E+00  0.00000000E+00
