Pt 
 1.0000000000000000
     4.7617180897999996    0.0000000000000000    0.0000000000000000
     0.0000000000000000    2.8052849200000001    0.0000000000000000
     0.0000000000000000    0.0000000000000000   24.9999999999999964
 Pt 
   8
Selective dynamics
Cartesian
  0.0000000000000000  0.0000000000000000  0.0000000000000000   F   F   F
  3.1744787424057166  0.0000000000000000  2.3191479197028682   F   F   F
  1.5872393473942827  0.0000000000000000  4.6382959089801306   F   F   T
  2.3808590448999998  1.4026424600000000  0.0000000000000000   F   F   F
  0.7936196975057169  1.4026424600000000  2.3191479197028682   F   F   F
  3.9680983922942827  1.4026424600000000  4.6382959089801306   F   F   T
  0.0000000000000000  0.0000000000000000  6.9574438286829992   F   F   T
  2.3808590448999998  1.4026424600000000  6.9574438286829992   F   F   T
