Pt  O                                   
   1.00000000000000     
     9.7177920199999992    0.0000000000000000    0.0000000000000000
     0.0000000000000000   11.4455624736000008    0.0000000000000000
     0.0000000000000000    0.0000000000000000   25.0000000000000000
   Pt   O 
    64     2
Selective dynamics
Direct
  0.0000000000000000  0.0000000000000000  0.0000000000000000   F   F   F
  0.3333333349999990  0.0000000000000000  0.0916202208171342   F   F   F
  0.1656590617041616  0.9996055274385753  0.1792665441352668   F   F   F
  0.2500000000000000  0.1250000000000000  0.0000000000000000   F   F   F
  0.0833333349999990  0.1250000000000000  0.0916202208171342   F   F   F
  0.4167706384098295  0.1254067020452538  0.1805341149479602   F   F   F
  0.9982623324900786  0.9996760362068713  0.2709519193100220   F   F   F
  0.2449809954187501  0.1188856854584870  0.2692226617855340   F   F   F
  0.0000000000000000  0.2500000000000000  0.0000000000000000   F   F   F
  0.3333333349999990  0.2500000000000000  0.0916202208171342   F   F   F
  0.1671232117745234  0.2502451127222400  0.1804582583872545   F   F   F
  0.2500000000000000  0.3750000000000000  0.0000000000000000   F   F   F
  0.0833333349999990  0.3750000000000000  0.0916202208171342   F   F   F
  0.4179978264595263  0.3761927320822593  0.1816485184350611   F   F   F
  0.9985487729508051  0.2474990854553667  0.2706798839497182   F   F   F
  0.2477623407597704  0.3771116121546854  0.2731780176118050   F   F   F
  0.0000000000000000  0.5000000000000000  0.0000000000000000   F   F   F
  0.3333333349999990  0.5000000000000000  0.0916202208171342   F   F   F
  0.1697084029228932  0.4965755815709585  0.1816304222368004   F   F   F
  0.2500000000000000  0.6250000000000000  0.0000000000000000   F   F   F
  0.0833333349999990  0.6250000000000000  0.0916202208171342   F   F   F
  0.4197471082422908  0.6253195246889760  0.1813127106377550   F   F   F
  0.0015469757177726  0.5004210613158833  0.2705167494619616   F   F   F
  0.2480994898486202  0.6292217339909101  0.2694514059749551   F   F   F
  0.0000000000000000  0.7500000000000000  0.0000000000000000   F   F   F
  0.3333333349999990  0.7500000000000000  0.0916202208171342   F   F   F
  0.1671967937135079  0.7496680363506556  0.1792172761704620   F   F   F
  0.2500000000000000  0.8750000000000000  0.0000000000000000   F   F   F
  0.0833333349999990  0.8750000000000000  0.0916202208171342   F   F   F
  0.4158608807041375  0.8755798589644783  0.1795689714440130   F   F   F
  0.0006136471822771  0.7514447297065701  0.2706501129407641   F   F   F
  0.2486830606944253  0.8750341292063482  0.2706345610915122   F   F   F
  0.5000000000000000  0.0000000000000000  0.0000000000000000   F   F   F
  0.8333333349999990  0.0000000000000000  0.0916202208171342   F   F   F
  0.6667025373274313  0.9998787475734119  0.1799371702045178   F   F   F
  0.7500000000000000  0.1250000000000000  0.0000000000000000   F   F   F
  0.5833333349999990  0.1250000000000000  0.0916202208171342   F   F   F
  0.9159234994916829  0.1250507301466399  0.1798078119487485   F   F   F
  0.5004571303570202  0.9987960687763362  0.2705475197319203   F   F   F
  0.7509226389931030  0.1236944436039309  0.2709011208757346   F   F   F
  0.5000000000000000  0.2500000000000000  0.0000000000000000   F   F   F
  0.8333333349999990  0.2500000000000000  0.0916202208171342   F   F   F
  0.6632890894528529  0.2493804609689860  0.1816493096329026   F   F   F
  0.7500000000000000  0.3750000000000000  0.0000000000000000   F   F   F
  0.5833333349999990  0.3750000000000000  0.0916202208171342   F   F   F
  0.9173045290345456  0.3743947406759602  0.1794932926351436   F   F   F
  0.5050620185192685  0.2484141395679700  0.2729207128483253   F   F   F
  0.7565831832755379  0.3748789592691679  0.2695547847977622   F   F   F
  0.5000000000000000  0.5000000000000000  0.0000000000000000   F   F   F
  0.8333333349999990  0.5000000000000000  0.0916202208171342   F   F   F
  0.6669926681109857  0.5014344092813516  0.1811722770540740   F   F   F
  0.7500000000000000  0.6250000000000000  0.0000000000000000   F   F   F
  0.5833333349999990  0.6250000000000000  0.0916202208171342   F   F   F
  0.9196316965763884  0.6241504190085223  0.1795553492844064   F   F   F
  0.5090345067703979  0.5112493404242713  0.2721820217491810   F   F   F
  0.7581932076023676  0.6288067884184869  0.2703098569898756   F   F   F
  0.5000000000000000  0.7500000000000000  0.0000000000000000   F   F   F
  0.8333333349999990  0.7500000000000000  0.0916202208171342   F   F   F
  0.6682385432835289  0.7509232525783958  0.1800192285075823   F   F   F
  0.7500000000000000  0.8750000000000000  0.0000000000000000   F   F   F
  0.5833333349999990  0.8750000000000000  0.0916202208171342   F   F   F
  0.9171620735335964  0.8750045353513300  0.1798891251580059   F   F   F
  0.5012802812820283  0.7569095596982791  0.2705574201312686   F   F   F
  0.7518691811167315  0.8761123946943741  0.2709705942001435   F   F   F
  0.4745633739758688  0.4597827408770883  0.3441466784408362   T   T   T
  0.3825235138066603  0.3221171701990499  0.3313191777279826   T   T   T
 
  0.00000000E+00  0.00000000E+00  0.00000000E+00
  0.00000000E+00  0.00000000E+00  0.00000000E+00
  0.00000000E+00  0.00000000E+00  0.00000000E+00
  0.00000000E+00  0.00000000E+00  0.00000000E+00
  0.00000000E+00  0.00000000E+00  0.00000000E+00
  0.00000000E+00  0.00000000E+00  0.00000000E+00
  0.00000000E+00  0.00000000E+00  0.00000000E+00
  0.00000000E+00  0.00000000E+00  0.00000000E+00
  0.00000000E+00  0.00000000E+00  0.00000000E+00
  0.00000000E+00  0.00000000E+00  0.00000000E+00
  0.00000000E+00  0.00000000E+00  0.00000000E+00
  0.00000000E+00  0.00000000E+00  0.00000000E+00
  0.00000000E+00  0.00000000E+00  0.00000000E+00
  0.00000000E+00  0.00000000E+00  0.00000000E+00
  0.00000000E+00  0.00000000E+00  0.00000000E+00
  0.00000000E+00  0.00000000E+00  0.00000000E+00
  0.00000000E+00  0.00000000E+00  0.00000000E+00
  0.00000000E+00  0.00000000E+00  0.00000000E+00
  0.00000000E+00  0.00000000E+00  0.00000000E+00
  0.00000000E+00  0.00000000E+00  0.00000000E+00
  0.00000000E+00  0.00000000E+00  0.00000000E+00
  0.00000000E+00  0.00000000E+00  0.00000000E+00
  0.00000000E+00  0.00000000E+00  0.00000000E+00
  0.00000000E+00  0.00000000E+00  0.00000000E+00
  0.00000000E+00  0.00000000E+00  0.00000000E+00
  0.00000000E+00  0.00000000E+00  0.00000000E+00
  0.00000000E+00  0.00000000E+00  0.00000000E+00
  0.00000000E+00  0.00000000E+00  0.00000000E+00
  0.00000000E+00  0.00000000E+00  0.00000000E+00
  0.00000000E+00  0.00000000E+00  0.00000000E+00
  0.00000000E+00  0.00000000E+00  0.00000000E+00
  0.00000000E+00  0.00000000E+00  0.00000000E+00
  0.00000000E+00  0.00000000E+00  0.00000000E+00
  0.00000000E+00  0.00000000E+00  0.00000000E+00
  0.00000000E+00  0.00000000E+00  0.00000000E+00
  0.00000000E+00  0.00000000E+00  0.00000000E+00
  0.00000000E+00  0.00000000E+00  0.00000000E+00
  0.00000000E+00  0.00000000E+00  0.00000000E+00
  0.00000000E+00  0.00000000E+00  0.00000000E+00
  0.00000000E+00  0.00000000E+00  0.00000000E+00
  0.00000000E+00  0.00000000E+00  0.00000000E+00
  0.00000000E+00  0.00000000E+00  0.00000000E+00
  0.00000000E+00  0.00000000E+00  0.00000000E+00
  0.00000000E+00  0.00000000E+00  0.00000000E+00
  0.00000000E+00  0.00000000E+00  0.00000000E+00
  0.00000000E+00  0.00000000E+00  0.00000000E+00
  0.00000000E+00  0.00000000E+00  0.00000000E+00
  0.00000000E+00  0.00000000E+00  0.00000000E+00
  0.00000000E+00  0.00000000E+00  0.00000000E+00
  0.00000000E+00  0.00000000E+00  0.00000000E+00
  0.00000000E+00  0.00000000E+00  0.00000000E+00
  0.00000000E+00  0.00000000E+00  0.00000000E+00
  0.00000000E+00  0.00000000E+00  0.00000000E+00
  0.00000000E+00  0.00000000E+00  0.00000000E+00
  0.00000000E+00  0.00000000E+00  0.00000000E+00
  0.00000000E+00  0.00000000E+00  0.00000000E+00
  0.00000000E+00  0.00000000E+00  0.00000000E+00
  0.00000000E+00  0.00000000E+00  0.00000000E+00
  0.00000000E+00  0.00000000E+00  0.00000000E+00
  0.00000000E+00  0.00000000E+00  0.00000000E+00
  0.00000000E+00  0.00000000E+00  0.00000000E+00
  0.00000000E+00  0.00000000E+00  0.00000000E+00
  0.00000000E+00  0.00000000E+00  0.00000000E+00
  0.00000000E+00  0.00000000E+00  0.00000000E+00
  0.00000000E+00  0.00000000E+00  0.00000000E+00
  0.00000000E+00  0.00000000E+00  0.00000000E+00
