Pt  O 
 1.0000000000000000
     9.5234361795999991    0.0000000000000000    0.0000000000000000
     0.0000000000000000   11.2211396800000003    0.0000000000000000
     0.0000000000000000    0.0000000000000000   25.0000000000000000
 Pt  O  
  64   2
Selective dynamics
Cartesian
  0.0000000000000000  0.0000000000000000  0.0000000000000000   F   F   F
  3.1744787424057170  0.0000000000000000  2.2905055204283551   F   F   F
  1.5776435017119914 11.2167132482883662  4.4816636033816000   F   F   F
  2.3808590448999993  1.4026424600000000  0.0000000000000000   F   F   F
  0.7936196975057164  1.4026424600000000  2.2905055204283551   F   F   F
  3.9690885764271351  1.4072061204579425  4.5133528736990698   F   F   F
  9.5068876139679155 11.2175044370260775  6.7737979827505592   F   F   F
  2.3330608750853576  1.3340328824822545  6.7305665446383447   F   F   F
  0.0000000000000000  2.8052849200000001  0.0000000000000000   F   F   F
  3.1744787424057170  2.8052849200000001  2.2905055204283551   F   F   F
  1.5915872414644323  2.8080353640936337  4.5114564596813072   F   F   F
  2.3808590448999993  4.2079273799999992  0.0000000000000000   F   F   F
  0.7936196975057164  4.2079273799999992  2.2905055204283551   F   F   F
  3.9807756234988325  4.2213111932958212  4.5412129608764822   F   F   F
  9.5096155114148750  2.7772218085668912  6.7669970987429151   F   F   F
  2.3595488399339857  4.2316220749377056  6.8294504402952096   F   F   F
  0.0000000000000000  5.6105698399999993  0.0000000000000000   F   F   F
  3.1744787424057170  5.6105698399999993  2.2905055204283551   F   F   F
  1.6162071443780219  5.5721439624849536  4.5407605559200448   F   F   F
  2.3808590448999993  7.0132122999999993  0.0000000000000000   F   F   F
  0.7936196975057164  7.0132122999999993  2.2905055204283551   F   F   F
  3.9974347969170871  7.0167977311662186  4.5328177659439124   F   F   F
  0.0147325245195897  5.6152946278393481  6.7629187365490075   F   F   F
  2.3627596577646206  7.0605849668038045  6.7362851493738303   F   F   F
  0.0000000000000000  8.4158547599999984  0.0000000000000000   F   F   F
  3.1744787424057170  8.4158547599999984  2.2905055204283551   F   F   F
  1.5922879943643529  8.4121297495220535  4.4804319042615024   F   F   F
  2.3808590448999993  9.8184972199999994  0.0000000000000000   F   F   F
  0.7936196975057164  9.8184972199999994  2.2905055204283551   F   F   F
  3.9604245569781056  9.8250038984350816  4.4892242861002494   F   F   F
  0.0058440297772054  8.4320662738372540  6.7662528235190171   F   F   F
  2.3683172574709750  9.8188801885916046  6.7658640272878880   F   F   F
  4.7617180897999978  0.0000000000000000  0.0000000000000000   F   F   F
  7.9361968322057157  0.0000000000000000  2.2905055204283551   F   F   F
  6.3492990650151846 11.2197790895847174  4.4984292551129696   F   F   F
  7.1425771346999989  1.4026424600000000  0.0000000000000000   F   F   F
  5.5553377873057155  1.4026424600000000  2.2905055204283551   F   F   F
  8.7227389928049686  1.4032117100614276  4.4951952987187829   F   F   F
  4.7660715415808363 11.2076301995741741  6.7636879932979719   F   F   F
  7.1513638282676260  1.3879926293196070  6.7725280218934047   F   F   F
  4.7617180897999978  2.8052849200000001  0.0000000000000000   F   F   F
  7.9361968322057157  2.8052849200000001  2.2905055204283551   F   F   F
  6.3167913120292312  2.7983329859957653  4.5412327408226076   F   F   F
  7.1425771346999989  4.2079273799999992  0.0000000000000000   F   F   F
  5.5553377873057155  4.2079273799999992  2.2905055204283551   F   F   F
  8.7358911395185039  4.2011356805822970  4.4873323158786373   F   F   F
  4.8099259001082055  2.7874897585791727  6.8230178212080643   F   F   F
  7.2052716604832039  4.2065691650523531  6.7388696199440004   F   F   F
  4.7617180897999978  5.6105698399999993  0.0000000000000000   F   F   F
  7.9361968322057157  5.6105698399999993  2.2905055204283551   F   F   F
  6.3520621070160823  5.6266655469043290  4.5293069263518397   F   F   F
  7.1425771346999989  7.0132122999999993  0.0000000000000000   F   F   F
  5.5553377873057155  7.0132122999999993  2.2905055204283551   F   F   F
  8.7580537710825368  7.0036790330251684  4.4888837321100796   F   F   F
  4.8477576384420749  5.7368002602085983  6.8045505437295501   F   F   F
  7.2206046244073514  7.0559288045760260  6.7577464247468617   F   F   F
  4.7617180897999978  8.4158547599999984  0.0000000000000000   F   F   F
  7.9361968322057157  8.4158547599999984  2.2905055204283551   F   F   F
  6.3639271197095439  8.4262147061420709  4.5004807126894821   F   F   F
  7.1425771346999989  9.8184972199999994  0.0000000000000000   F   F   F
  5.5553377873057155  9.8184972199999994  2.2905055204283551   F   F   F
  8.7345344736468356  9.8185481118107987  4.4972281289502272   F   F   F
  4.7739107668813272  8.4933878945017263  6.7639355032817203   F   F   F
  7.1603781617733011  9.8309795562448414  6.7742648550035103   F   F   F
  4.5194740052348621  5.1592863578350343  8.6036669610209948   T   T   T
  3.6429382709340912  3.6145217601298443  8.2979794431996368   T   T   T
