Pt  O                                   
   1.00000000000000     
     9.7177920199999992    0.0000000000000000    0.0000000000000000
     0.0000000000000000   11.4455624736000008    0.0000000000000000
     0.0000000000000000    0.0000000000000000   25.0000000000000000
   Pt   O 
    64     2
Selective dynamics
Direct
  0.0000000000000000  0.0000000000000000  0.0000000000000000   F   F   F
  0.3333333349999990  0.0000000000000000  0.0916202208171342   F   F   F
  0.1644483099723253  0.9996462418368985  0.1778210892146958   T   T   T
  0.2500000000000000  0.1250000000000000  0.0000000000000000   F   F   F
  0.0833333349999989  0.1250000000000000  0.0916202208171342   F   F   F
  0.4161355897837190  0.1250493215056299  0.1789534171785065   T   T   T
  0.9966776179619888  0.0006500388190231  0.2682694282662662   T   T   T
  0.2444737528754776  0.1174454888528773  0.2665615925253537   T   T   T
  0.0000000000000000  0.2500000000000000  0.0000000000000000   F   F   F
  0.3333333349999990  0.2500000000000000  0.0916202208171342   F   F   F
  0.1674290076817308  0.2508078255054743  0.1791775551256672   T   T   T
  0.2500000000000000  0.3750000000000000  0.0000000000000000   F   F   F
  0.0833333349999989  0.3750000000000000  0.0916202208171342   F   F   F
  0.4183844350326791  0.3764182608372625  0.1808487909892081   T   T   T
  0.9977119312559121  0.2474139544552120  0.2676942183127411   T   T   T
  0.2458668839552328  0.3811150069165556  0.2703531278572574   T   T   T
  0.0000000000000000  0.5000000000000000  0.0000000000000000   F   F   F
  0.3333333349999990  0.5000000000000000  0.0916202208171342   F   F   F
  0.1687090617814008  0.4967056324493661  0.1798877407379884   T   T   T
  0.2500000000000000  0.6250000000000000  0.0000000000000000   F   F   F
  0.0833333349999989  0.6250000000000000  0.0916202208171342   F   F   F
  0.4192026977374825  0.6257261823816708  0.1799324045678009   T   T   T
  0.9981418047391413  0.5011307535627670  0.2676332580176157   T   T   T
  0.2460170675859733  0.6308003771197638  0.2665966080511560   T   T   T
  0.0000000000000000  0.7500000000000000  0.0000000000000000   F   F   F
  0.3333333349999990  0.7500000000000000  0.0916202208171342   F   F   F
  0.1659113178122228  0.7500801924623718  0.1778126401560780   T   T   T
  0.2500000000000000  0.8749999999999999  0.0000000000000000   F   F   F
  0.0833333349999989  0.8749999999999999  0.0916202208171342   F   F   F
  0.4144624555204393  0.8754790092863834  0.1781494452476034   T   T   T
  0.9989426635778754  0.7529549669673065  0.2679124183848516   T   T   T
  0.2463729583140594  0.8752079944480906  0.2681282883024559   T   T   T
  0.4999999999999999  0.0000000000000000  0.0000000000000000   F   F   F
  0.8333333349999990  0.0000000000000000  0.0916202208171342   F   F   F
  0.6656253095300961  0.9998688157599843  0.1784743852024659   T   T   T
  0.7500000000000000  0.1250000000000000  0.0000000000000000   F   F   F
  0.5833333349999990  0.1250000000000000  0.0916202208171342   F   F   F
  0.9151529908709349  0.1253697519994498  0.1783007575283271   T   T   T
  0.4982481121200938  0.9975255643505605  0.2680721927427519   T   T   T
  0.7487769781975644  0.1233071244630214  0.2679615100954100   T   T   T
  0.4999999999999999  0.2500000000000000  0.0000000000000000   F   F   F
  0.8333333349999990  0.2500000000000000  0.0916202208171342   F   F   F
  0.6624211006832249  0.2491255351824498  0.1799019963377905   T   T   T
  0.7500000000000000  0.3750000000000000  0.0000000000000000   F   F   F
  0.5833333349999990  0.3750000000000000  0.0916202208171342   F   F   F
  0.9163608580737161  0.3744751779143162  0.1781744618805641   T   T   T
  0.5011755301177676  0.2448430613944398  0.2704272830287993   T   T   T
  0.7528919502814191  0.3740219311634963  0.2665802614836084   T   T   T
  0.4999999999999999  0.5000000000000000  0.0000000000000000   F   F   F
  0.8333333349999990  0.5000000000000000  0.0916202208171342   F   F   F
  0.6663203618395392  0.5020284652372455  0.1798888697948435   T   T   T
  0.7500000000000000  0.6250000000000000  0.0000000000000000   F   F   F
  0.5833333349999990  0.6250000000000000  0.0916202208171342   F   F   F
  0.9188526677211397  0.6244212868166217  0.1780677823831382   T   T   T
  0.5072042136298919  0.5143917142192944  0.2693872540386731   T   T   T
  0.7566788315700907  0.6311429686635603  0.2676835813768757   T   T   T
  0.4999999999999999  0.7500000000000000  0.0000000000000000   F   F   F
  0.8333333349999990  0.7500000000000000  0.0916202208171342   F   F   F
  0.6673902724874012  0.7513021907251252  0.1786173455993397   T   T   T
  0.7500000000000000  0.8749999999999999  0.0000000000000000   F   F   F
  0.5833333349999990  0.8749999999999999  0.0916202208171342   F   F   F
  0.9159680841021349  0.8754595673392762  0.1783521856632711   T   T   T
  0.4999181823998778  0.7581297119605372  0.2681670691449218   T   T   T
  0.7503228572671271  0.8773595711577645  0.2683681192075446   T   T   T
  0.4752522271344020  0.4571892328112662  0.3392370654916133   T   T   T
  0.3836745561084460  0.3258019983742189  0.3272534416246539   T   T   T
 
  0.00000000E+00  0.00000000E+00  0.00000000E+00
  0.00000000E+00  0.00000000E+00  0.00000000E+00
 -0.13834924E-02  0.36098042E-02 -0.13815525E-03
  0.00000000E+00  0.00000000E+00  0.00000000E+00
  0.00000000E+00  0.00000000E+00  0.00000000E+00
  0.79303243E-03  0.28580902E-02  0.46381016E-02
 -0.60672322E-02 -0.95558556E-02  0.42448544E-03
 -0.28128164E-01 -0.40381904E-01 -0.33620267E-02
  0.00000000E+00  0.00000000E+00  0.00000000E+00
  0.00000000E+00  0.00000000E+00  0.00000000E+00
  0.23124625E-02  0.61084002E-02  0.32435472E-02
  0.00000000E+00  0.00000000E+00  0.00000000E+00
  0.00000000E+00  0.00000000E+00  0.00000000E+00
  0.16597950E-01  0.31917301E-01  0.63367619E-01
 -0.80358209E-02 -0.59920285E-02  0.17019576E-02
 -0.73350920E-02 -0.47184724E-01  0.69467902E-01
  0.00000000E+00  0.00000000E+00  0.00000000E+00
  0.00000000E+00  0.00000000E+00  0.00000000E+00
  0.15965821E-01 -0.99460910E-02  0.17627350E-01
  0.00000000E+00  0.00000000E+00  0.00000000E+00
  0.00000000E+00  0.00000000E+00  0.00000000E+00
 -0.31442540E-02 -0.10700777E-02  0.18357314E-01
  0.11509910E-01 -0.17727323E-01 -0.43770769E-02
 -0.18598675E-01  0.62827143E-03  0.96770800E-02
  0.00000000E+00  0.00000000E+00  0.00000000E+00
  0.00000000E+00  0.00000000E+00  0.00000000E+00
 -0.25151797E-02 -0.57818380E-02 -0.25006811E-02
  0.00000000E+00  0.00000000E+00  0.00000000E+00
  0.00000000E+00  0.00000000E+00  0.00000000E+00
 -0.44402137E-02 -0.50136029E-03 -0.47737829E-03
 -0.85832071E-02  0.14775930E-02  0.11112349E-02
 -0.24671419E-02 -0.68525113E-02  0.22726635E-03
  0.00000000E+00  0.00000000E+00  0.00000000E+00
  0.00000000E+00  0.00000000E+00  0.00000000E+00
 -0.15018263E-02  0.24295720E-02 -0.14697650E-02
  0.00000000E+00  0.00000000E+00  0.00000000E+00
  0.00000000E+00  0.00000000E+00  0.00000000E+00
 -0.22730468E-02 -0.60446520E-03  0.37292352E-03
  0.70726567E-02 -0.11195595E-01  0.18181983E-03
 -0.58298496E-02  0.48417310E-02  0.30685490E-02
  0.00000000E+00  0.00000000E+00  0.00000000E+00
  0.00000000E+00  0.00000000E+00  0.00000000E+00
 -0.15173057E-02  0.14236237E-02  0.16592578E-01
  0.00000000E+00  0.00000000E+00  0.00000000E+00
  0.00000000E+00  0.00000000E+00  0.00000000E+00
 -0.53434278E-02 -0.40703118E-02 -0.36680748E-02
 -0.17032535E-01 -0.14109197E-01  0.81463298E-01
  0.12744329E-01 -0.16593356E-01  0.90935945E-02
  0.00000000E+00  0.00000000E+00  0.00000000E+00
  0.00000000E+00  0.00000000E+00  0.00000000E+00
 -0.34558030E-02 -0.26567428E-02  0.13566129E-01
  0.00000000E+00  0.00000000E+00  0.00000000E+00
  0.00000000E+00  0.00000000E+00  0.00000000E+00
  0.60598917E-02 -0.93817990E-02 -0.12359640E-02
  0.52987032E-01  0.43430503E-01  0.62880716E-01
  0.16982311E-01  0.13563798E-01 -0.10460313E-01
  0.00000000E+00  0.00000000E+00  0.00000000E+00
  0.00000000E+00  0.00000000E+00  0.00000000E+00
  0.47129667E-02 -0.76260004E-03 -0.47775092E-02
  0.00000000E+00  0.00000000E+00  0.00000000E+00
  0.00000000E+00  0.00000000E+00  0.00000000E+00
  0.20909795E-02  0.75767852E-03 -0.38588987E-02
  0.63441933E-03  0.10271232E-01 -0.11617340E-01
  0.21559057E-02  0.13916499E-02 -0.77975436E-03
  0.28487994E+00  0.58860306E+00 -0.73784417E-01
 -0.34882840E+00 -0.57364672E+00 -0.28422760E+00
