Pt  O 
 1.0000000000000000
     9.7177920199999992    0.0000000000000000    0.0000000000000000
     0.0000000000000000   11.4455624736000008    0.0000000000000000
     0.0000000000000000    0.0000000000000000   25.0000000000000000
 Pt  O  
  64   2
Selective dynamics
Cartesian
  0.0000000000000000  0.0000000000000000  0.0000000000000000   F   F   F
  3.2392640228629768  0.0000000000000000  2.2905055204283551   F   F   F
  1.6098403078693890 11.4410475132540945  4.4816636033816701   T   T   T
  2.4294480049999998  1.4306953092000001  0.0000000000000000   F   F   F
  0.8098160178629769  1.4306953092000001  2.2905055204283551   F   F   F
  4.0500903841093461  1.4353502428670935  4.5133528736990050   T   T   T
  9.7009057285386717 11.4418545257665620  6.7737979827505495   T   T   T
  2.3806743623319861  1.3607135401318722  6.7305665446383500   T   T   T
  0.0000000000000000  2.8613906184000002  0.0000000000000000   F   F   F
  3.2392640228629768  2.8613906184000002  2.2905055204283551   F   F   F
  1.6240686137392335  2.8641960713754719  4.5114564596813622   T   T   T
  2.4294480049999998  4.2920859276000005  0.0000000000000000   F   F   F
  0.8098160178629769  4.2920859276000005  2.2905055204283551   F   F   F
  4.0620159423457292  4.3057374171617662  4.5412129608765275   T   T   T
  9.7036892973621249  2.8327662447382647  6.7669970987429551   T   T   T
  2.4077028978918174  4.3162545164364650  6.8294504402951244   T   T   T
  0.0000000000000000  5.7227812368000004  0.0000000000000000   F   F   F
  3.2392640228629768  5.7227812368000004  2.2905055204283551   F   F   F
  1.6491909636510360  5.6835868417346589  4.5407605559200102   T   T   T
  2.4294480049999998  7.1534765460000003  0.0000000000000000   F   F   F
  0.8098160178629769  7.1534765460000003  2.2905055204283551   F   F   F
  4.0790150988950096  7.1571336857895327  4.5328177659438751   T   T   T
  0.0150331882853043  5.7276005203961589  6.7629187365490395   T   T   T
  2.4109792426169925  7.2017966661398827  6.7362851493738773   T   T   T
  0.0000000000000000  8.5841718552000010  0.0000000000000000   F   F   F
  3.2392640228629768  8.5841718552000010  2.2905055204283551   F   F   F
  1.6247836677187131  8.5803723445124653  4.4804319042615495   T   T   T
  2.4294480049999998 10.0148671644000000  0.0000000000000000   F   F   F
  0.8098160178629769 10.0148671644000000  2.2905055204283551   F   F   F
  4.0412495479368395 10.0215039764038139  4.4892242861003249   T   T   T
  0.0059632956910279  8.6007075993140134  6.7662528235191015   T   T   T
  2.4166502627254616 10.0152577923634336  6.7658640272878046   T   T   T
  4.8588960099999996  0.0000000000000000  0.0000000000000000   F   F   F
  8.0981600328629764  0.0000000000000000  2.2905055204283551   F   F   F
  6.4788765969542643 11.4441746713764108  4.4984292551129448   T   T   T
  7.2883440149999998  1.4306953092000001  0.0000000000000000   F   F   F
  5.6687120278629761  1.4306953092000001  2.2905055204283551   F   F   F
  8.9007540742907505  1.4312759442626619  4.4951952987187127   T   T   T
  4.8633383077355505 11.4317828035656390  6.7636879932980083   T   T   T
  7.2973100288445165  1.4157524819059832  6.7725280218933648   T   T   T
  4.8588960099999996  2.8613906184000002  0.0000000000000000   F   F   F
  8.0981600328629764  2.8613906184000002  2.2905055204283551   F   F   F
  6.4457054204379993  2.8542996457156957  4.5412327408225650   T   T   T
  7.2883440149999998  4.2920859276000005  0.0000000000000000   F   F   F
  5.6687120278629761  4.2920859276000005  2.2905055204283551   F   F   F
  8.9141746321617656  4.2851583941939735  4.4873323158785903   T   T   T
  4.9080876531716386  2.8432395537507906  6.8230178212081327   T   T   T
  7.3523180209012189  4.2907005483534117  6.7388696199440545   T   T   T
  4.8588960099999996  5.7227812368000004  0.0000000000000000   F   F   F
  8.0981600328629764  5.7227812368000004  2.2905055204283551   F   F   F
  6.4816960275674447  5.7391988578424220  4.5293069263518495   T   T   T
  7.2883440149999998  7.1534765460000003  0.0000000000000000   F   F   F
  5.6687120278629761  7.1534765460000003  2.2905055204283551   F   F   F
  8.9367895623290874  7.1437526136856597  4.4888837321101596   T   T   T
  4.9466914677980078  5.8515362654127916  6.8045505437295244   T   T   T
  7.3679639024564914  7.1970473806675699  6.7577464247468892   T   T   T
  4.8588960099999996  8.5841718552000010  0.0000000000000000   F   F   F
  8.0981600328629764  8.5841718552000010  2.2905055204283551   F   F   F
  6.4938031833771017  8.5947390002649424  4.5004807126895576   T   T   T
  7.2883440149999998 10.0148671644000000  0.0000000000000000   F   F   F
  5.6687120278629761 10.0148671644000000  2.2905055204283551   F   F   F
  8.9127902792314355 10.0149190740469880  4.4972281289501472   T   T   T
  4.8713375172258493  8.6632556523917224  6.7639355032817150   T   T   T
  7.3065083283401080 10.0275991473697612  6.7742648550035884   T   T   T
  4.6117081686069730  5.2624720849917548  8.6036669610209042   T   T   T
  3.7172839499327228  3.6868121953324700  8.2829794431995651   T   T   T
  ! Dimer Axis Block
0 0 0
0 0 0
0 0 0
0 0 0
0 0 0
0 0 0
0 0 0
0 0 0
0 0 0
0 0 0
0 0 0
0 0 0
0 0 0
0 0 0
0 0 0
0 0 0
0 0 0
0 0 0
0 0 0
0 0 0
0 0 0
0 0 0
0 0 0
0 0 0
0 0 0
0 0 0
0 0 0
0 0 0
0 0 0
0 0 0
0 0 0
0 0 0
0 0 0
0 0 0
0 0 0
0 0 0
0 0 0
0 0 0
0 0 0
0 0 0
0 0 0
0 0 0
0 0 0
0 0 0
0 0 0
0 0 0
0 0 0
0 0 0
0 0 0
0 0 0
0 0 0
0 0 0
0 0 0
0 0 0
0 0 0
0 0 0
0 0 0
0 0 0
0 0 0
0 0 0
0 0 0
0 0 0
0 0 0
0 0 0
0.080863 0.144439 -0.030236
-0.076350 -0.147713 -0.080845
