Pt 
 1.0000000000000000
     2.7718585822512662    0.0000000000000000    0.0000000000000000
     0.0000000000000000    2.7718585822512662    0.0000000000000000
     0.0000000000000000    0.0000000000000000    3.9199999999999999
 Pt 
   2
Cartesian
  0.0000000000000000  0.0000000000000000  0.0000000000000000
  1.3859292911256331  1.3859292911256331  1.9600000000000000
