Pt  O 
 1.0000000000000000
     9.7177920199999992    0.0000000000000000    0.0000000000000000
     0.0000000000000000   11.4455624736000008    0.0000000000000000
     0.0000000000000000    0.0000000000000000   25.0000000000000000
 Pt  O  
  64   2
Selective dynamics
Cartesian
  0.0000000000000000  0.0000000000000000  0.0000000000000000   F   F   F
  3.2392640228629768  0.0000000000000000  2.2905055204283551   F   F   F
  1.6333276996659840 11.4448823420969497  4.5119962605183170   T   T   T
  2.4294480049999998  1.4306953092000001  0.0000000000000000   F   F   F
  0.8098160178629769  1.4306953092000001  2.2905055204283551   F   F   F
  4.0727047157364371  1.4699445327492373  4.5911806833728628   T   T   T
  0.0024754597827855 11.4324601125381999  6.7942807380702517   T   T   T
  2.4038072455964441  1.4164016151040049  6.7828603901489677   T   T   T
  0.0000000000000000  2.8613906184000002  0.0000000000000000   F   F   F
  3.2392640228629768  2.8613906184000002  2.2905055204283551   F   F   F
  1.6151664867383082  2.8511765636314905  4.5055563974210555   T   T   T
  2.4294480049999998  4.2920859276000005  0.0000000000000000   F   F   F
  0.8098160178629769  4.2920859276000005  2.2905055204283551   F   F   F
  4.0398695467706895  4.2920202966263448  4.5274135016637072   T   T   T
  9.7118040420271754  2.8314726322813737  6.8001894791135751   T   T   T
  2.3373027913213371  4.2919499031765627  6.7319319816789944   T   T   T
  0.0000000000000000  5.7227812368000004  0.0000000000000000   F   F   F
  3.2392640228629768  5.7227812368000004  2.2905055204283551   F   F   F
  1.6150697414697361  5.7329307858655021  4.5056119832167925   T   T   T
  2.4294480049999998  7.1534765460000003  0.0000000000000000   F   F   F
  0.8098160178629769  7.1534765460000003  2.2905055204283551   F   F   F
  4.0727251599242242  7.1138848476867693  4.5914377745462298   T   T   T
  9.7118145899494479  5.7526048508211201  6.8002684375285503   T   T   T
  2.4039135485497489  7.1676640204462219  6.7830093655830481   T   T   T
  0.0000000000000000  8.5841718552000010  0.0000000000000000   F   F   F
  3.2392640228629768  8.5841718552000010  2.2905055204283551   F   F   F
  1.6333424157285064  8.5847517920059691  4.5120583662296898   T   T   T
  2.4294480049999998 10.0148671644000000  0.0000000000000000   F   F   F
  0.8098160178629769 10.0148671644000000  2.2905055204283551   F   F   F
  4.0550488409784533 10.0147717373488430  4.5106065564819104   T   T   T
  0.0024634865581262  8.5970935754781070  6.7943049964013564   T   T   T
  2.4261778193913952 10.0148783873773510  6.7910297330666500   T   T   T
  4.8588960099999996  0.0000000000000000  0.0000000000000000   F   F   F
  8.0981600328629764  0.0000000000000000  2.2905055204283551   F   F   F
  6.4824314572397714 11.4442678442751404  4.5197029953558223   T   T   T
  7.2883440149999998  1.4306953092000001  0.0000000000000000   F   F   F
  5.6687120278629761  1.4306953092000001  2.2905055204283551   F   F   F
  8.9133904510978965  1.4283000888729878  4.5131532618010501   T   T   T
  4.8579517274059336 11.4163734722195738  6.7952178958140346   T   T   T
  7.3129130688669424  1.4080367299952012  6.7805773059735976   T   T   T
  4.8588960099999996  2.8613906184000002  0.0000000000000000   F   F   F
  8.0981600328629764  2.8613906184000002  2.2905055204283551   F   F   F
  6.4617565289188423  2.8622540309728310  4.5536243949329096   T   T   T
  7.2883440149999998  4.2920859276000005  0.0000000000000000   F   F   F
  5.6687120278629761  4.2920859276000005  2.2905055204283551   F   F   F
  8.9195243808518612  4.2920408078080001  4.5005337681817226   T   T   T
  4.8662972574610359  2.8571098649646416  6.8833379629972979   T   T   T
  7.3831878721934485  4.2920006496542333  6.7480427011163178   T   T   T
  4.8588960099999996  5.7227812368000004  0.0000000000000000   F   F   F
  8.0981600328629764  5.7227812368000004  2.2905055204283551   F   F   F
  6.4617324401948801  5.7217120050022361  4.5536957048447952   T   T   T
  7.2883440149999998  7.1534765460000003  0.0000000000000000   F   F   F
  5.6687120278629761  7.1534765460000003  2.2905055204283551   F   F   F
  8.9133013989876755  7.1558343001915929  4.5132500969650247   T   T   T
  4.8661674196694902  5.7260514665992392  6.8837292566889419   T   T   T
  7.3126681763910790  7.1756824050864729  6.7807525314683117   T   T   T
  4.8588960099999996  8.5841718552000010  0.0000000000000000   F   F   F
  8.0981600328629764  8.5841718552000010  2.2905055204283551   F   F   F
  6.4824016856580640  8.5854465147512595  4.5197293909398670   T   T   T
  7.2883440149999998 10.0148671644000000  0.0000000000000000   F   F   F
  5.6687120278629761 10.0148671644000000  2.2905055204283551   F   F   F
  8.9181211563415168 10.0148754596083123  4.5162203290325351   T   T   T
  4.8579446650396019  8.6129832133953919  6.7952723080742548   T   T   T
  7.2973557464629177 10.0146764954426057  6.7882226809066122   T   T   T
  4.8591009201711630  3.6050470112146642  8.7448792523715824   T   T   T
  4.8589687547155966  4.9775429180884601  8.7450795624710125   T   T   T
