Pt  O                                   
   1.00000000000000     
     9.7177920199999992    0.0000000000000000    0.0000000000000000
     0.0000000000000000   11.4455624736000008    0.0000000000000000
     0.0000000000000000    0.0000000000000000   25.0000000000000000
   Pt   O 
    64     2
Selective dynamics
Direct
  0.0000000000000000  0.0000000000000000  0.0000000000000000   F   F   F
  0.3333333349999990  0.0000000000000000  0.0916202208171342   F   F   F
  0.1675336290045690  0.9998621132687296  0.1782266087098734   T   T   T
  0.2500000000000000  0.1250000000000000  0.0000000000000000   F   F   F
  0.0833333349999990  0.1250000000000000  0.0916202208171342   F   F   F
  0.4191112848841911  0.1284428303847930  0.1810073143707455   T   T   T
  0.0001323120738245  0.9982089965719978  0.2679450469768019   T   T   T
  0.2472345916083290  0.1230894276996898  0.2675550208244315   T   T   T
  0.0000000000000000  0.2500000000000000  0.0000000000000000   F   F   F
  0.3333333349999990  0.2500000000000000  0.0916202208171342   F   F   F
  0.1663738418476789  0.2490212006093019  0.1780483823397122   T   T   T
  0.2500000000000000  0.3750000000000000  0.0000000000000000   F   F   F
  0.0833333349999990  0.3750000000000000  0.0916202208171342   F   F   F
  0.4159669899245619  0.3749866532264151  0.1790482794135506   T   T   T
  0.9992548475218478  0.2466879311165695  0.2678657404387676   T   T   T
  0.2404285895612768  0.3749998014869891  0.2656279074904494   T   T   T
  0.0000000000000000  0.5000000000000000  0.0000000000000000   F   F   F
  0.3333333349999990  0.5000000000000000  0.0916202208171342   F   F   F
  0.1663663730477072  0.5009752900828830  0.1780480251698230   T   T   T
  0.2500000000000000  0.6250000000000000  0.0000000000000000   F   F   F
  0.0833333349999990  0.6250000000000000  0.0916202208171342   F   F   F
  0.4191023045803818  0.6215294952428987  0.1810032426360374   T   T   T
  0.9992462142950451  0.5033023313485270  0.2678674997177493   T   T   T
  0.2472236113663600  0.6268844676659090  0.2675563268934561   T   T   T
  0.0000000000000000  0.7500000000000000  0.0000000000000000   F   F   F
  0.3333333349999990  0.7500000000000000  0.0916202208171342   F   F   F
  0.1675335009959738  0.7501224292829366  0.1782263027890946   T   T   T
  0.2500000000000000  0.8750000000000000  0.0000000000000000   F   F   F
  0.0833333349999990  0.8750000000000000  0.0916202208171342   F   F   F
  0.4166194509598513  0.8749957865539193  0.1781748961977018   T   T   T
  0.0001392955588618  0.7517763084117585  0.2679482487812114   T   T   T
  0.2496638427668812  0.8749785938689223  0.2680142251032166   T   T   T
  0.5000000000000000  0.0000000000000000  0.0000000000000000   F   F   F
  0.8333333349999990  0.0000000000000000  0.0916202208171342   F   F   F
  0.6662190108619424  0.9998239123956931  0.1785439554048594   T   T   T
  0.7500000000000000  0.1250000000000000  0.0000000000000000   F   F   F
  0.5833333349999990  0.1250000000000000  0.0916202208171342   F   F   F
  0.9165693571454800  0.1244209979928146  0.1782009778905631   T   T   T
  0.4996129613283035  0.9970239496498599  0.2681743133366267   T   T   T
  0.7522590053901315  0.1224654500479053  0.2675395888163575   T   T   T
  0.5000000000000000  0.2500000000000000  0.0000000000000000   F   F   F
  0.8333333349999990  0.2500000000000000  0.0916202208171342   F   F   F
  0.6648065737675520  0.2501225069853421  0.1798628416151546   T   T   T
  0.7500000000000000  0.3750000000000000  0.0000000000000000   F   F   F
  0.5833333349999990  0.3750000000000000  0.0916202208171342   F   F   F
  0.9179174482028035  0.3750052702410945  0.1778610183445744   T   T   T
  0.5003721605265101  0.2486194683188493  0.2712503615112266   T   T   T
  0.7597465734691122  0.3749891919807983  0.2663138649341650   T   T   T
  0.5000000000000000  0.5000000000000000  0.0000000000000000   F   F   F
  0.8333333349999990  0.5000000000000000  0.0916202208171342   F   F   F
  0.6648010730085323  0.4998607614559059  0.1798614456529034   T   T   T
  0.7500000000000000  0.6250000000000000  0.0000000000000000   F   F   F
  0.5833333349999990  0.6250000000000000  0.0916202208171342   F   F   F
  0.9165620630503625  0.6255815238618514  0.1782002265081561   T   T   T
  0.5003861459085398  0.5013531721668668  0.2712462978177603   T   T   T
  0.7522572741482633  0.6275258873662490  0.2675342130292485   T   T   T
  0.5000000000000000  0.7500000000000000  0.0000000000000000   F   F   F
  0.8333333349999990  0.7500000000000000  0.0916202208171342   F   F   F
  0.6662116252825359  0.7501657762581571  0.1785384548383570   T   T   T
  0.7500000000000000  0.8750000000000000  0.0000000000000000   F   F   F
  0.5833333349999990  0.8750000000000000  0.0916202208171342   F   F   F
  0.9168589038487119  0.8749899235631098  0.1782665196220427   T   T   T
  0.4995980729075293  0.7529519984781349  0.2681674220082901   T   T   T
  0.7507075762299670  0.8749783426305874  0.2679009896997767   T   T   T
  0.5003581126134691  0.3150099487253797  0.3457392390219062   T   T   T
  0.5003537408689748  0.4349711059727112  0.3457376276701691   T   T   T
 
  0.00000000E+00  0.00000000E+00  0.00000000E+00
  0.00000000E+00  0.00000000E+00  0.00000000E+00
  0.00000000E+00  0.00000000E+00  0.00000000E+00
  0.00000000E+00  0.00000000E+00  0.00000000E+00
  0.00000000E+00  0.00000000E+00  0.00000000E+00
  0.00000000E+00  0.00000000E+00  0.00000000E+00
  0.00000000E+00  0.00000000E+00  0.00000000E+00
  0.00000000E+00  0.00000000E+00  0.00000000E+00
  0.00000000E+00  0.00000000E+00  0.00000000E+00
  0.00000000E+00  0.00000000E+00  0.00000000E+00
  0.00000000E+00  0.00000000E+00  0.00000000E+00
  0.00000000E+00  0.00000000E+00  0.00000000E+00
  0.00000000E+00  0.00000000E+00  0.00000000E+00
  0.00000000E+00  0.00000000E+00  0.00000000E+00
  0.00000000E+00  0.00000000E+00  0.00000000E+00
  0.00000000E+00  0.00000000E+00  0.00000000E+00
  0.00000000E+00  0.00000000E+00  0.00000000E+00
  0.00000000E+00  0.00000000E+00  0.00000000E+00
  0.00000000E+00  0.00000000E+00  0.00000000E+00
  0.00000000E+00  0.00000000E+00  0.00000000E+00
  0.00000000E+00  0.00000000E+00  0.00000000E+00
  0.00000000E+00  0.00000000E+00  0.00000000E+00
  0.00000000E+00  0.00000000E+00  0.00000000E+00
  0.00000000E+00  0.00000000E+00  0.00000000E+00
  0.00000000E+00  0.00000000E+00  0.00000000E+00
  0.00000000E+00  0.00000000E+00  0.00000000E+00
  0.00000000E+00  0.00000000E+00  0.00000000E+00
  0.00000000E+00  0.00000000E+00  0.00000000E+00
  0.00000000E+00  0.00000000E+00  0.00000000E+00
  0.00000000E+00  0.00000000E+00  0.00000000E+00
  0.00000000E+00  0.00000000E+00  0.00000000E+00
  0.00000000E+00  0.00000000E+00  0.00000000E+00
  0.00000000E+00  0.00000000E+00  0.00000000E+00
  0.00000000E+00  0.00000000E+00  0.00000000E+00
  0.00000000E+00  0.00000000E+00  0.00000000E+00
  0.00000000E+00  0.00000000E+00  0.00000000E+00
  0.00000000E+00  0.00000000E+00  0.00000000E+00
  0.00000000E+00  0.00000000E+00  0.00000000E+00
  0.00000000E+00  0.00000000E+00  0.00000000E+00
  0.00000000E+00  0.00000000E+00  0.00000000E+00
  0.00000000E+00  0.00000000E+00  0.00000000E+00
  0.00000000E+00  0.00000000E+00  0.00000000E+00
  0.00000000E+00  0.00000000E+00  0.00000000E+00
  0.00000000E+00  0.00000000E+00  0.00000000E+00
  0.00000000E+00  0.00000000E+00  0.00000000E+00
  0.00000000E+00  0.00000000E+00  0.00000000E+00
  0.00000000E+00  0.00000000E+00  0.00000000E+00
  0.00000000E+00  0.00000000E+00  0.00000000E+00
  0.00000000E+00  0.00000000E+00  0.00000000E+00
  0.00000000E+00  0.00000000E+00  0.00000000E+00
  0.00000000E+00  0.00000000E+00  0.00000000E+00
  0.00000000E+00  0.00000000E+00  0.00000000E+00
  0.00000000E+00  0.00000000E+00  0.00000000E+00
  0.00000000E+00  0.00000000E+00  0.00000000E+00
  0.00000000E+00  0.00000000E+00  0.00000000E+00
  0.00000000E+00  0.00000000E+00  0.00000000E+00
  0.00000000E+00  0.00000000E+00  0.00000000E+00
  0.00000000E+00  0.00000000E+00  0.00000000E+00
  0.00000000E+00  0.00000000E+00  0.00000000E+00
  0.00000000E+00  0.00000000E+00  0.00000000E+00
  0.00000000E+00  0.00000000E+00  0.00000000E+00
  0.00000000E+00  0.00000000E+00  0.00000000E+00
  0.00000000E+00  0.00000000E+00  0.00000000E+00
  0.00000000E+00  0.00000000E+00  0.00000000E+00
  0.00000000E+00  0.00000000E+00  0.00000000E+00
  0.00000000E+00  0.00000000E+00  0.00000000E+00
