Pt  O 
 1.0000000000000000
     9.7177920199999992    0.0000000000000000    0.0000000000000000
     0.0000000000000000   11.4455624736000008    0.0000000000000000
     0.0000000000000000    0.0000000000000000   25.0000000000000000
 Pt  O  
  64   2
Selective dynamics
Cartesian
  0.0000000000000000  0.0000000000000000  0.0000000000000000   F   F   F
  3.2392640228629768  0.0000000000000000  2.2905055204283551   F   F   F
  1.6224734027869236  0.0188164630061199  4.4761959659639405   T   T   T
  2.4294480049999998  1.4306953092000001  0.0000000000000000   F   F   F
  0.8098160178629769  1.4306953092000001  2.2905055204283551   F   F   F
  4.0426994155597438  1.4499423898965400  4.4925294900873372   T   T   T
  9.6685295850791260 11.4151734361021564  6.7049459727799796   T   T   T
  2.3528748518644051  1.2659706006828548  6.7558778996327380   T   T   T
  0.0000000000000000  2.8613906184000002  0.0000000000000000   F   F   F
  3.2392640228629768  2.8613906184000002  2.2905055204283551   F   F   F
  1.6399262357643878  2.8751142503092009  4.5060700195899344   T   T   T
  2.4294480049999998  4.2920859276000005  0.0000000000000000   F   F   F
  0.8098160178629769  4.2920859276000005  2.2905055204283551   F   F   F
  4.0444328112080914  4.2921175956030098  4.5289567319327624   T   T   T
  9.6557373073049870  2.8124704984760744  6.6730356403208972   T   T   T
  2.2337802795911226  4.2920898482404866  6.8031832916887582   T   T   T
  0.0000000000000000  5.7227812368000004  0.0000000000000000   F   F   F
  3.2392640228629768  5.7227812368000004  2.2905055204283551   F   F   F
  1.6399136967461958  5.7090559164149974  4.5060630818015426   T   T   T
  2.4294480049999998  7.1534765460000003  0.0000000000000000   F   F   F
  0.8098160178629769  7.1534765460000003  2.2905055204283551   F   F   F
  4.0426827722415792  7.1342527477975439  4.4925583034575025   T   T   T
  9.6557610582374007  5.7717248988278822  6.6730608563475196   T   T   T
  2.3528550097051313  7.3182140911651477  6.7559184885561203   T   T   T
  0.0000000000000000  8.5841718552000010  0.0000000000000000   F   F   F
  3.2392640228629768  8.5841718552000010  2.2905055204283551   F   F   F
  1.6224605087210071  8.5653215660130808  4.4761986730316030   T   T   T
  2.4294480049999998 10.0148671644000000  0.0000000000000000   F   F   F
  0.8098160178629769 10.0148671644000000  2.2905055204283551   F   F   F
  4.0348178265954404 10.0148142536703357  4.4567987865524445   T   T   T
  9.6684945081616185  8.6146141481755336  6.7049687977454822   T   T   T
  2.3904675683966574 10.0148650972223372  6.7015004578909299   T   T   T
  4.8588960099999996  0.0000000000000000  0.0000000000000000   F   F   F
  8.0981600328629764  0.0000000000000000  2.2905055204283551   F   F   F
  6.4707937347713989 11.4441455703956585  4.4548473673780720   T   T   T
  7.2883440149999998  1.4306953092000001  0.0000000000000000   F   F   F
  5.6687120278629761  1.4306953092000001  2.2905055204283551   F   F   F
  8.9025106247331109  1.4312245441919902  4.4488307619100480   T   T   T
  4.8734214637591995 11.4093059243751416  6.6833875864562229   T   T   T
  7.3060395222533900  1.3788752918119194  6.7045773776481399   T   T   T
  4.8588960099999996  2.8613906184000002  0.0000000000000000   F   F   F
  8.0981600328629764  2.8613906184000002  2.2905055204283551   F   F   F
  6.4602600730855748  2.8587679382282198  4.4905440167791904   T   T   T
  7.2883440149999998  4.2920859276000005  0.0000000000000000   F   F   F
  5.6687120278629761  4.2920859276000005  2.2905055204283551   F   F   F
  8.9053714972855715  4.2921300484704128  4.4525715346583024   T   T   T
  5.0023766591049430  2.8432716446157640  6.7673211247621419   T   T   T
  7.3321010009051601  4.2921087496472978  6.6946746663461481   T   T   T
  4.8588960099999996  5.7227812368000004  0.0000000000000000   F   F   F
  8.0981600328629764  5.7227812368000004  2.2905055204283551   F   F   F
  6.4602430262245374  5.7254118556483071  4.4905805272948722   T   T   T
  7.2883440149999998  7.1534765460000003  0.0000000000000000   F   F   F
  5.6687120278629761  7.1534765460000003  2.2905055204283551   F   F   F
  8.9024675485661291  7.1529103207690774  4.4488426054777745   T   T   T
  5.0023797328470359  5.7409310148978516  6.7673061413459106   T   T   T
  7.3060192519452540  7.2054347490808608  6.7045656667269711   T   T   T
  4.8588960099999996  8.5841718552000010  0.0000000000000000   F   F   F
  8.0981600328629764  8.5841718552000010  2.2905055204283551   F   F   F
  6.4708116016822723  8.5856023997228501  4.4548790478103353   T   T   T
  7.2883440149999998 10.0148671644000000  0.0000000000000000   F   F   F
  5.6687120278629761 10.0148671644000000  2.2905055204283551   F   F   F
  8.9161735298814211 10.0148768879580370  4.4446356379454626   T   T   T
  4.8734088316669961  8.6205259963185856  6.6833829666982449   T   T   T
  7.2890858421586211 10.0148939180953320  6.6975467583862827   T   T   T
  3.2501939452498454  2.7699717869318032  7.8012417502693623   T   T   T
  3.2501973407878602  5.8142088594882582  7.8012588631439641   T   T   T
