Pt  O 
 1.0000000000000000
     9.7177920199999992    0.0000000000000000    0.0000000000000000
     0.0000000000000000   11.4455624736000008    0.0000000000000000
     0.0000000000000000    0.0000000000000000   25.0000000000000000
 Pt  O  
  64   2
Selective dynamics
Cartesian
  0.0000000000000000  0.0000000000000000  0.0000000000000000   F   F   F
  3.2392640228629768  0.0000000000000000  2.2905055204283551   F   F   F
  1.6280569630222410 11.4439842824029654  4.4556652177468345   T   T   T
  2.4294480049999998  1.4306953092000001  0.0000000000000000   F   F   F
  0.8098160178629769  1.4306953092000001  2.2905055204283551   F   F   F
  4.0728362997395386  1.4701004394551569  4.5251828592686376   T   T   T
  0.0012857812151614 11.4250634319743707  6.6986261744200473   T   T   T
  2.4025743413993785  1.4088277345764699  6.6888755206107877   T   T   T
  0.0000000000000000  2.8613906184000002  0.0000000000000000   F   F   F
  3.2392640228629768  2.8613906184000002  2.2905055204283551   F   F   F
  1.6167863926441159  2.8501877088246435  4.4512095584928053   T   T   T
  2.4294480049999998  4.2920859276000005  0.0000000000000000   F   F   F
  0.8098160178629769  4.2920859276000005  2.2905055204283551   F   F   F
  4.0422806952723276  4.2919331662691134  4.4762069853387647   T   T   T
  9.7105507831941278  2.8234821270778299  6.6966435109691895   T   T   T
  2.3364350290184306  4.2920836555069322  6.6406976872612349   T   T   T
  0.0000000000000000  5.7227812368000004  0.0000000000000000   F   F   F
  3.2392640228629768  5.7227812368000004  2.2905055204283551   F   F   F
  1.6167138123993521  5.7339439803735202  4.4512006292455748   T   T   T
  2.4294480049999998  7.1534765460000003  0.0000000000000000   F   F   F
  0.8098160178629769  7.1534765460000003  2.2905055204283551   F   F   F
  4.0727490310148431  7.1137546669876714  4.5250810659009346   T   T   T
  9.7104668872915987  5.7605782765580935  6.6966874929437328   T   T   T
  2.4024676376915943  7.1750453383996406  6.6889081723364026   T   T   T
  0.0000000000000000  8.5841718552000010  0.0000000000000000   F   F   F
  3.2392640228629768  8.5841718552000010  2.2905055204283551   F   F   F
  1.6280557190613361  8.5855731272064499  4.4556575697273653   T   T   T
  2.4294480049999998 10.0148671644000000  0.0000000000000000   F   F   F
  0.8098160178629769 10.0148671644000000  2.2905055204283551   F   F   F
  4.0486211759144242 10.0148189391396549  4.4543724049425446   T   T   T
  0.0013536452703286  8.6045027040991631  6.6987062195302842   T   T   T
  2.4261812989225326 10.0146221591894324  6.7003556275804153   T   T   T
  4.8588960099999996  0.0000000000000000  0.0000000000000000   F   F   F
  8.0981600328629764  0.0000000000000000  2.2905055204283551   F   F   F
  6.4741777873264761 11.4435470519240798  4.4635988851214847   T   T   T
  7.2883440149999998  1.4306953092000001  0.0000000000000000   F   F   F
  5.6687120278629761  1.4306953092000001  2.2905055204283551   F   F   F
  8.9070303846448748  1.4240683055544199  4.4550244472640781   T   T   T
  4.8551348486847559 11.4114999033928921  6.7043578334156679   T   T   T
  7.3102965595533558  1.4016859593808402  6.6884897204089366   T   T   T
  4.8588960099999996  2.8613906184000002  0.0000000000000000   F   F   F
  8.0981600328629764  2.8613906184000002  2.2905055204283551   F   F   F
  6.4604520174018578  2.8627927797541859  4.4965710403788650   T   T   T
  7.2883440149999998  4.2920859276000005  0.0000000000000000   F   F   F
  5.6687120278629761  4.2920859276000005  2.2905055204283551   F   F   F
  8.9201308531639665  4.2921462484736983  4.4465254586143601   T   T   T
  4.8625125885946785  2.8455896567966059  6.7812590377806652   T   T   T
  7.3830591888804822  4.2919622237410113  6.6578466233541249   T   T   T
  4.8588960099999996  5.7227812368000004  0.0000000000000000   F   F   F
  8.0981600328629764  5.7227812368000004  2.2905055204283551   F   F   F
  6.4603985621697522  5.7211875733448387  4.4965361413225855   T   T   T
  7.2883440149999998  7.1534765460000003  0.0000000000000000   F   F   F
  5.6687120278629761  7.1534765460000003  2.2905055204283551   F   F   F
  8.9069595021455488  7.1601324136907101  4.4550056627039023   T   T   T
  4.8626484956285632  5.7382690533734113  6.7811574454440064   T   T   T
  7.3102797357049445  7.1823867476516812  6.6883553257312132   T   T   T
  4.8588960099999996  8.5841718552000010  0.0000000000000000   F   F   F
  8.0981600328629764  8.5841718552000010  2.2905055204283551   F   F   F
  6.4741060158018566  8.5860692577193767  4.4634613709589255   T   T   T
  7.2883440149999998 10.0148671644000000  0.0000000000000000   F   F   F
  5.6687120278629761 10.0148671644000000  2.2905055204283551   F   F   F
  8.9098441392869603 10.0147518339120616  4.4566629905510675   T   T   T
  4.8549901661081662  8.6179591382034655  6.7041855502072520   T   T   T
  7.2952200936411140 10.0146192836253753  6.6975247424944175   T   T   T
  4.8623760738974307  3.6054660479418663  8.6434809755476536   T   T   T
  4.8623335901936704  4.9784889676215522  8.6434406917542272   T   T   T
