Pt 
 1.0000000000000000
     4.9560739301999996    0.0000000000000000    0.0000000000000000
     0.0000000000000000    2.8052849200000001    0.0000000000000000
     0.0000000000000000    0.0000000000000000    6.8715166300000003
 Pt 
   6
Cartesian
  0.0000000000000000  0.0000000000000000  0.0000000000000000
  3.3040493033202361  0.0000000000000000  2.2905055204282920
  1.6520246268797638  0.0000000000000000  4.5810111095717074
  2.4780369650999998  1.4026424600000000  0.0000000000000000
  0.8260123382202360  1.4026424600000000  2.2905055204282920
  4.1300615919797634  1.4026424600000000  4.5810111095717074
