Pt 
 1.0000000000000000
     4.8588960099999996    0.0000000000000000    0.0000000000000000
     0.0000000000000000    2.8052849200000001    0.0000000000000000
     0.0000000000000000    0.0000000000000000    6.8715166300000003
 Pt 
   6
Cartesian
  0.0000000000000000  0.0000000000000000  0.0000000000000000
  3.2392640228629865  0.0000000000000000  2.2905055204282778
  1.6196319871370131  0.0000000000000000  4.5810111095717225
  2.4294480049999998  1.4026424600000000  0.0000000000000000
  0.8098160178629866  1.4026424600000000  2.2905055204282778
  4.0490799921370133  1.4026424600000000  4.5810111095717225
