Pt  O 
 1.0000000000000000
     9.7177920199999992    0.0000000000000000    0.0000000000000000
     0.0000000000000000   10.9967168863999998    0.0000000000000000
     0.0000000000000000    0.0000000000000000   25.0000000000000000
 Pt  O  
  64   2
Selective dynamics
Cartesian
  0.0000000000000000  0.0000000000000000  0.0000000000000000   F   F   F
  3.2392640228629768  0.0000000000000000  2.2905055204283551   F   F   F
  1.6355037387537223 11.0075876193285094  4.5403226358352260   T   T   T
  2.4294480049999998  1.3745896108000000  0.0000000000000000   F   F   F
  0.8098160178629769  1.3745896108000000  2.2905055204283551   F   F   F
  4.0581185359434562  1.3930212820119630  4.5703619547829133   T   T   T
 -0.0107889736994107 10.9868278232408123  6.8255443911367131   T   T   T
  2.3881128356968135  1.3119224962203015  6.8422618957322534   T   T   T
  0.0000000000000000  2.7491792215999999  0.0000000000000000   F   F   F
  3.2392640228629768  2.7491792215999999  2.2905055204283551   F   F   F
  1.6274787807890212  2.7560676435089784  4.5453457304681155   T   T   T
  2.4294480049999998  4.1237688323999997  0.0000000000000000   F   F   F
  0.8098160178629769  4.1237688323999997  2.2905055204283551   F   F   F
  4.0408749443562373  4.1238435663790742  4.5618680174670967   T   T   T
  9.6911072755255709  2.7333840517223011  6.8157338125378750   T   T   T
  2.3252350282493803  4.1239223209347058  6.8643919668518105   T   T   T
  0.0000000000000000  5.4983584431999999  0.0000000000000000   F   F   F
  3.2392640228629768  5.4983584431999999  2.2905055204283551   F   F   F
  1.6274384098802011  5.4914961623486835  4.5453748804045482   T   T   T
  2.4294480049999998  6.8729480540000001  0.0000000000000000   F   F   F
  0.8098160178629769  6.8729480540000001  2.2905055204283551   F   F   F
  4.0581083720746705  6.8546740423398491  4.5705516415512024   T   T   T
  9.6910059607476100  5.5140164131266811  6.8156952135170110   T   T   T
  2.3880015051436496  6.9358257726226897  6.8423033435498617   T   T   T
  0.0000000000000000  8.2475376647999994  0.0000000000000000   F   F   F
  3.2392640228629768  8.2475376647999994  2.2905055204283551   F   F   F
  1.6353355092025976  8.2365555993475290  4.5402952484251493   T   T   T
  2.4294480049999998  9.6221272756000005  0.0000000000000000   F   F   F
  0.8098160178629769  9.6221272756000005  2.2905055204283551   F   F   F
  4.0522562444980190  9.6221497559947196  4.5241915981258742   T   T   T
 -0.0106636595888020  8.2576419415087869  6.8258508960632378   T   T   T
  2.4230214137254986  9.6221494442451529  6.8290208358677109   T   T   T
  4.8588960099999996  0.0000000000000000  0.0000000000000000   F   F   F
  8.0981600328629764  0.0000000000000000  2.2905055204283551   F   F   F
  6.4844870890617798 10.9963030577569807  4.5256242274765892   T   T   T
  7.2883440149999998  1.3745896108000000  0.0000000000000000   F   F   F
  5.6687120278629761  1.3745896108000000  2.2905055204283551   F   F   F
  8.9127075371201254  1.3756899696290130  4.5211174599158639   T   T   T
  4.8795143135397252 10.9726237184164184  6.8133979507634095   T   T   T
  7.3182184224254314  1.3521447387373662  6.8229879930491890   T   T   T
  4.8588960099999996  2.7491792215999999  0.0000000000000000   F   F   F
  8.0981600328629764  2.7491792215999999  2.2905055204283551   F   F   F
  6.4600961096095038  2.7494740473970474  4.5618922163148126   T   T   T
  7.2883440149999998  4.1237688323999997  0.0000000000000000   F   F   F
  5.6687120278629761  4.1237688323999997  2.2905055204283551   F   F   F
  8.9051213099181581  4.1237651503761086  4.5129088604815504   T   T   T
  4.9316378654482911  2.7347280247957149  6.8966981842719965   T   T   T
  7.3519888677352823  4.1238534153015927  6.8095834031111648   T   T   T
  4.8588960099999996  5.4983584431999999  0.0000000000000000   F   F   F
  8.0981600328629764  5.4983584431999999  2.2905055204283551   F   F   F
  6.4601432946532187  5.4980318392277834  4.5617046978181826   T   T   T
  7.2883440149999998  6.8729480540000001  0.0000000000000000   F   F   F
  5.6687120278629761  6.8729480540000001  2.2905055204283551   F   F   F
  8.9127007124199675  6.8718706882161928  4.5213316544756985   T   T   T
  4.9316687323215653  5.5126829355046496  6.8965374903200818   T   T   T
  7.3182256307068565  6.8954621174075115  6.8230788208374502   T   T   T
  4.8588960099999996  8.2475376647999994  0.0000000000000000   F   F   F
  8.0981600328629764  8.2475376647999994  2.2905055204283551   F   F   F
  6.4844276870274875  8.2479170881614223  4.5256795513650392   T   T   T
  7.2883440149999998  9.6221272756000005  0.0000000000000000   F   F   F
  5.6687120278629761  9.6221272756000005  2.2905055204283551   F   F   F
  8.9264124668240505  9.6221071702796284  4.5217548726043244   T   T   T
  4.8797040855019755  8.2718967057870927  6.8137126555854479   T   T   T
  7.3083510719472073  9.6221515876760488  6.8189199904739706   T   T   T
  4.0851449466664915  3.0407314250144832  8.4070206526204529   T   T   T
  4.0851526506886655  5.2066312891560829  8.4069172966067285   T   T   T
