Pt 
 1.0000000000000000
     4.8588960099999996    0.0000000000000000    0.0000000000000000
     0.0000000000000000    2.8052849200000001    0.0000000000000000
     0.0000000000000000    0.0000000000000000   25.0000000000000000
 Pt 
   8
Selective dynamics
Cartesian
  0.0000000000000000  0.0000000000000000  0.0000000000000000   F   F   F
  3.2392640228629763  0.0000000000000000  2.2905055204282925   F   F   F
  1.6196319871370233  0.0000000000000000  4.5810111095717083   F   F   T
  2.4294480049999998  1.4026424600000000  0.0000000000000000   F   F   F
  0.8098160178629764  1.4026424600000000  2.2905055204282925   F   F   F
  4.0490799921370231  1.4026424600000000  4.5810111095717083   F   F   T
  0.0000000000000000  0.0000000000000000  6.8715166300000003   F   F   T
  2.4294480049999998  1.4026424600000000  6.8715166300000003   F   F   T
