Pt  O 
 1.0000000000000000
     9.5234361795999991    0.0000000000000000    0.0000000000000000
     0.0000000000000000   11.2211396800000003    0.0000000000000000
     0.0000000000000000    0.0000000000000000   25.0000000000000000
 Pt  O  
  64   2
Selective dynamics
Cartesian
  0.0000000000000000  0.0000000000000000  0.0000000000000000   F   F   F
  3.1744787424057170  0.0000000000000000  2.2905055204283551   F   F   F
  1.6033983554003859 11.2350632533795203  4.5401273645180300   T   T   T
  2.3808590448999998  1.4026424600000000  0.0000000000000000   F   F   F
  0.7936196975057174  1.4026424600000000  2.2905055204283551   F   F   F
  3.9803437413138338  1.4209473380972624  4.5692560634917285   T   T   T
 -0.0098093520957589 11.2043444051168777  6.8268669202482339   T   T   T
  2.3499043934944872  1.3269461045761952  6.8450355242646541   T   T   T
  0.0000000000000000  2.8052849200000001  0.0000000000000000   F   F   F
  3.1744787424057170  2.8052849200000001  2.2905055204283551   F   F   F
  1.6017263127450174  2.8128351286472251  4.5467492107891658   T   T   T
  2.3808590448999998  4.2079273800000001  0.0000000000000000   F   F   F
  0.7936196975057174  4.2079273800000001  2.2905055204283551   F   F   F
  3.9722760545246514  4.2079202236115094  4.5551340486263614   T   T   T
  9.5019716575044963  2.7774568259673602  6.8086386496196099   T   T   T
  2.2877703063864891  4.2078373769393700  6.8458220830958361   T   T   T
  0.0000000000000000  5.6105698400000001  0.0000000000000000   F   F   F
  3.1744787424057170  5.6105698400000001  2.2905055204283551   F   F   F
  1.6017019921424378  5.6029377520445403  4.5467663653526333   T   T   T
  2.3808590448999998  7.0132123000000002  0.0000000000000000   F   F   F
  0.7936196975057174  7.0132123000000002  2.2905055204283551   F   F   F
  3.9803660574509498  6.9948378198854275  4.5692800660092772   T   T   T
  9.5018773571999890  5.6382829855382450  6.8087590409467715   T   T   T
  2.3498159157676088  7.0887022515536078  6.8449905003521252   T   T   T
  0.0000000000000000  8.4158547600000002  0.0000000000000000   F   F   F
  3.1744787424057170  8.4158547600000002  2.2905055204283551   F   F   F
  1.6033775941293733  8.4018484150294732  4.5401181734705327   T   T   T
  2.3808590448999998  9.8184972200000011  0.0000000000000000   F   F   F
  0.7936196975057174  9.8184972200000011  2.2905055204283551   F   F   F
  3.9696304843042638  9.8184213781046950  4.5225510676741694   T   T   T
 -0.0098076739703169  8.4324204203707573  6.8268662913773728   T   T   T
  2.3767354969168641  9.8183115729017807  6.8279968115973562   T   T   T
  4.7617180897999996  0.0000000000000000  0.0000000000000000   F   F   F
  7.9361968322057166  0.0000000000000000  2.2905055204283551   F   F   F
  6.3538063052510738 11.2188025330149550  4.5255085673353985   T   T   T
  7.1425771346999998  1.4026424600000000  0.0000000000000000   F   F   F
  5.5553377873057164  1.4026424600000000  2.2905055204283551   F   F   F
  8.7342031256991675  1.4034254990238524  4.5206846598416428   T   T   T
  4.7820269816381247 11.1899161033780032  6.8174812744308255   T   T   T
  7.1668703591402236  1.3701568786794871  6.8235995328260604   T   T   T
  4.7617180897999996  2.8052849200000001  0.0000000000000000   F   F   F
  7.9361968322057166  2.8052849200000001  2.2905055204283551   F   F   F
  6.3366186681124690  2.8035418207255889  4.5652093853980213   T   T   T
  7.1425771346999998  4.2079273800000001  0.0000000000000000   F   F   F
  5.5553377873057164  4.2079273800000001  2.2905055204283551   F   F   F
  8.7326582431223336  4.2079266428180748  4.5131621194961449   T   T   T
  4.8267824245107391  2.7885879479745568  6.8965057099681797   T   T   T
  7.2026281721208951  4.2078243202244892  6.8039388461085943   T   T   T
  4.7617180897999996  5.6105698400000001  0.0000000000000000   F   F   F
  7.9361968322057166  5.6105698400000001  2.2905055204283551   F   F   F
  6.3366070725458137  5.6122421165352518  4.5652196560751701   T   T   T
  7.1425771346999998  7.0132123000000002  0.0000000000000000   F   F   F
  5.5553377873057164  7.0132123000000002  2.2905055204283551   F   F   F
  8.7342031681341901  7.0123739605288824  4.5207003368782939   T   T   T
  4.8268512936583843  5.6270404462465660  6.8965352271779050   T   T   T
  7.1668891693316086  7.0454350529248213  6.8236519530154247   T   T   T
  4.7617180897999996  8.4158547600000002  0.0000000000000000   F   F   F
  7.9361968322057166  8.4158547600000002  2.2905055204283551   F   F   F
  6.3538310796167483  8.4181051020674111  4.5255286845170817   T   T   T
  7.1425771346999998  9.8184972200000011  0.0000000000000000   F   F   F
  5.5553377873057164  9.8184972200000011  2.2905055204283551   F   F   F
  8.7464831342247606  9.8184816740549614  4.5212837183211763   T   T   T
  4.7820887746768967  8.4468235462132526  6.8175126461067617   T   T   T
  7.1602369014882363  9.8184401888670756  6.8239948506005845   T   T   T
  3.9829357861973582  3.1119293137689787  8.4096267749528941   T   T   T
  3.9828355742535311  5.3034921377962423  8.4096050897643320   T   T   T
