Pt  O 
 1.0000000000000000
     9.7177920199999992    0.0000000000000000    0.0000000000000000
     0.0000000000000000   11.4455624736000008    0.0000000000000000
     0.0000000000000000    0.0000000000000000   25.0000000000000000
 Pt  O  
  64   2
Selective dynamics
Cartesian
  0.0000000000000000  0.0000000000000000  0.0000000000000000   F   F   F
  3.2392640228629763  0.0000000000000000  2.2905055204283551   F   F   F
  1.6098403078693790 11.4410475132541336  4.4816636033816000   F   F   F
  2.4294480049999994  1.4306953092000001  0.0000000000000000   F   F   F
  0.8098160178629759  1.4306953092000001  2.2905055204283551   F   F   F
  4.0500903841093212  1.4353502428671014  4.5133528736990698   F   F   F
  9.7009057285386895 11.4418545257665993  6.7737979827505592   F   F   F
  2.3806743623319973  1.3607135401318997  6.7305665446383447   F   F   F
  0.0000000000000000  2.8613906184000002  0.0000000000000000   F   F   F
  3.2392640228629763  2.8613906184000002  2.2905055204283551   F   F   F
  1.6240686137392166  2.8641960713755066  4.5114564596813072   F   F   F
  2.4294480049999994  4.2920859275999996  0.0000000000000000   F   F   F
  0.8098160178629759  4.2920859275999996  2.2905055204283551   F   F   F
  4.0620159423457469  4.3057374171617377  4.5412129608764822   F   F   F
  9.7036892973621161  2.8327662447382291  6.7669970987429151   F   F   F
  2.4077028978918218  4.3162545164364596  6.8294504402952096   F   F   F
  0.0000000000000000  5.7227812367999995  0.0000000000000000   F   F   F
  3.2392640228629763  5.7227812367999995  2.2905055204283551   F   F   F
  1.6491909636510427  5.6835868417346527  4.5407605559200448   F   F   F
  2.4294480049999994  7.1534765459999994  0.0000000000000000   F   F   F
  0.8098160178629759  7.1534765459999994  2.2905055204283551   F   F   F
  4.0790150988949865  7.1571336857895433  4.5328177659439124   F   F   F
  0.0150331882852956  5.7276005203961349  6.7629187365490075   F   F   F
  2.4109792426169596  7.2017966661398809  6.7362851493738303   F   F   F
  0.0000000000000000  8.5841718551999993  0.0000000000000000   F   F   F
  3.2392640228629763  8.5841718551999993  2.2905055204283551   F   F   F
  1.6247836677187275  8.5803723445124955  4.4804319042615024   F   F   F
  2.4294480049999994 10.0148671644000000  0.0000000000000000   F   F   F
  0.8098160178629759 10.0148671644000000  2.2905055204283551   F   F   F
  4.0412495479368422 10.0215039764037837  4.4892242861002494   F   F   F
  0.0059632956910259  8.6007075993139992  6.7662528235190171   F   F   F
  2.4166502627254847 10.0152577923634372  6.7658640272878880   F   F   F
  4.8588960099999978  0.0000000000000000  0.0000000000000000   F   F   F
  8.0981600328629746  0.0000000000000000  2.2905055204283551   F   F   F
  6.4788765969542697 11.4441746713764125  4.4984292551129696   F   F   F
  7.2883440149999990  1.4306953092000001  0.0000000000000000   F   F   F
  5.6687120278629752  1.4306953092000001  2.2905055204283551   F   F   F
  8.9007540742907842  1.4312759442626561  4.4951952987187829   F   F   F
  4.8633383077355470 11.4317828035656586  6.7636879932979719   F   F   F
  7.2973100288445165  1.4157524819059992  6.7725280218934047   F   F   F
  4.8588960099999978  2.8613906184000002  0.0000000000000000   F   F   F
  8.0981600328629746  2.8613906184000002  2.2905055204283551   F   F   F
  6.4457054204379913  2.8542996457156806  4.5412327408226076   F   F   F
  7.2883440149999990  4.2920859275999996  0.0000000000000000   F   F   F
  5.6687120278629752  4.2920859275999996  2.2905055204283551   F   F   F
  8.9141746321617390  4.2851583941939433  4.4873323158786373   F   F   F
  4.9080876531716378  2.8432395537507560  6.8230178212080643   F   F   F
  7.3523180209012287  4.2907005483534002  6.7388696199440004   F   F   F
  4.8588960099999978  5.7227812367999995  0.0000000000000000   F   F   F
  8.0981600328629746  5.7227812367999995  2.2905055204283551   F   F   F
  6.4816960275674305  5.7391988578424158  4.5293069263518397   F   F   F
  7.2883440149999990  7.1534765459999994  0.0000000000000000   F   F   F
  5.6687120278629752  7.1534765459999994  2.2905055204283551   F   F   F
  8.9367895623291194  7.1437526136856722  4.4888837321100796   F   F   F
  4.9466914677980354  5.8515362654127703  6.8045505437295501   F   F   F
  7.3679639024564807  7.1970473806675468  6.7577464247468617   F   F   F
  4.8588960099999978  8.5841718551999993  0.0000000000000000   F   F   F
  8.0981600328629746  8.5841718551999993  2.2905055204283551   F   F   F
  6.4938031833770857  8.5947390002649122  4.5004807126894821   F   F   F
  7.2883440149999990 10.0148671644000000  0.0000000000000000   F   F   F
  5.6687120278629752 10.0148671644000000  2.2905055204283551   F   F   F
  8.9127902792314639 10.0149190740470146  4.4972281289502272   F   F   F
  4.8713375172258440  8.6632556523917614  6.7639355032817203   F   F   F
  7.3065083283401036 10.0275991473697381  6.7742648550035103   F   F   F
  4.6117081686070023  5.2624720849917352  8.6036669610209948   T   T   T
  3.7172839499327464  3.6868121953324411  8.2979794431996368   T   T   T
