Pt                                      
   1.00000000000000     
     4.8588960099999996    0.0000000000000000    0.0000000000000000
     0.0000000000000000    2.8613906184000002    0.0000000000000000
     0.0000000000000000    0.0000000000000000   25.0000000000000036
   Pt
     8
Selective dynamics
Direct
  0.0000000000000000  0.0000000000000000  0.0000000000000000   F   F   F
  0.6666666699999979  0.0000000000000000  0.0904903582007321   F   F   F
  0.3333333300000021  0.0000000000000000  0.1797054516180712   F   F   T
  0.5000000000000000  0.5000000000000000  0.0000000000000000   F   F   F
  0.1666666699999979  0.5000000000000000  0.0904903582007321   F   F   F
  0.8333333300000021  0.5000000000000000  0.1797062676846408   F   F   T
  0.0000000000000000  0.0000000000000000  0.2706148276270882   F   F   T
  0.5000000000000000  0.5000000000000000  0.2706131112146866   F   F   T
 
  0.00000000E+00  0.00000000E+00  0.00000000E+00
  0.00000000E+00  0.00000000E+00  0.00000000E+00
  0.00000000E+00  0.00000000E+00  0.00000000E+00
  0.00000000E+00  0.00000000E+00  0.00000000E+00
  0.00000000E+00  0.00000000E+00  0.00000000E+00
  0.00000000E+00  0.00000000E+00  0.00000000E+00
  0.00000000E+00  0.00000000E+00  0.00000000E+00
  0.00000000E+00  0.00000000E+00  0.00000000E+00
