Pt  O 
 1.0000000000000000
     9.9121478603999993    0.0000000000000000    0.0000000000000000
     0.0000000000000000   11.2211396800000003    0.0000000000000000
     0.0000000000000000    0.0000000000000000   25.0000000000000000
 Pt  O  
  64   2
Selective dynamics
Cartesian
  0.0000000000000000  0.0000000000000000  0.0000000000000000   F   F   F
  3.3040493033202365  0.0000000000000000  2.2905055204283551   F   F   F
  1.6420371140267767 11.2167132482883272  4.4816636033816701   T   T   T
  2.4780369650999998  1.4026424600000000  0.0000000000000000   F   F   F
  0.8260123382202365  1.4026424600000000  2.2905055204283551   F   F   F
  4.1310921917915326  1.4072061204579347  4.5133528736990050   T   T   T
  9.8949238431094457 11.2175044370260402  6.7737979827505495   T   T   T
  2.4282878495786258  1.3340328824822276  6.7305665446383500   T   T   T
  0.0000000000000000  2.8052849200000001  0.0000000000000000   F   F   F
  3.3040493033202365  2.8052849200000001  2.2905055204283551   F   F   F
  1.6565499860140183  2.8080353640936000  4.5114564596813622   T   T   T
  2.4780369650999998  4.2079273800000001  0.0000000000000000   F   F   F
  0.8260123382202365  4.2079273800000001  2.2905055204283551   F   F   F
  4.1432562611926445  4.2213111932958487  4.5412129608765275   T   T   T
  9.8977630833093677  2.7772218085669262  6.7669970987429551   T   T   T
  2.4558569558496539  4.2316220749377109  6.8294504402951244   T   T   T
  0.0000000000000000  5.6105698400000001  0.0000000000000000   F   F   F
  3.3040493033202365  5.6105698400000001  2.2905055204283551   F   F   F
  1.6821747829240568  5.5721439624849589  4.5407605559200102   T   T   T
  2.4780369650999998  7.0132123000000002  0.0000000000000000   F   F   F
  0.8260123382202365  7.0132123000000002  2.2905055204283551   F   F   F
  4.1605954008729098  7.0167977311662089  4.5328177659438751   T   T   T
  0.0153338520510104  5.6152946278393712  6.7629187365490395   T   T   T
  2.4591988274693319  7.0605849668038063  6.7362851493738773   T   T   T
  0.0000000000000000  8.4158547600000002  0.0000000000000000   F   F   F
  3.3040493033202365  8.4158547600000002  2.2905055204283551   F   F   F
  1.6572793410730875  8.4121297495220233  4.4804319042615495   T   T   T
  2.4780369650999998  9.8184972200000011  0.0000000000000000   F   F   F
  0.8260123382202365  9.8184972200000011  2.2905055204283551   F   F   F
  4.1220745388955757  9.8250038984351118  4.4892242861003249   T   T   T
  0.0060825616048484  8.4320662738372683  6.7662528235191015   T   T   T
  2.4649832679799708  9.8188801885916011  6.7658640272878046   T   T   T
  4.9560739301999996  0.0000000000000000  0.0000000000000000   F   F   F
  8.2601232335202361  0.0000000000000000  2.2905055204283551   F   F   F
  6.6084541288933494 11.2197790895847156  4.4984292551129448   T   T   T
  7.4341108952999999  1.4026424600000000  0.0000000000000000   F   F   F
  5.7820862684202359  1.4026424600000000  2.2905055204283551   F   F   F
  9.0787691557766355  1.4032117100614332  4.4951952987187127   T   T   T
  4.9606050738902612 11.2076301995741563  6.7636879932980083   T   T   T
  7.4432562294214062  1.3879926293195914  6.7725280218933648   T   T   T
  4.9560739301999996  2.8052849200000001  0.0000000000000000   F   F   F
  8.2601232335202361  2.8052849200000001  2.2905055204283551   F   F   F
  6.5746195288467595  2.7983329859957800  4.5412327408225650   T   T   T
  7.4341108952999999  4.2079273800000001  0.0000000000000000   F   F   F
  5.7820862684202359  4.2079273800000001  2.2905055204283551   F   F   F
  9.0924581248050007  4.2011356805823272  4.4873323158785903   T   T   T
  5.0062494062350718  2.7874897585792064  6.8230178212081327   T   T   T
  7.4993643813192428  4.2065691650523638  6.7388696199440545   T   T   T
  4.9560739301999996  5.6105698400000001  0.0000000000000000   F   F   F
  8.2601232335202361  5.6105698400000001  2.2905055204283551   F   F   F
  6.6113299481187937  5.6266655469043352  4.5293069263518495   T   T   T
  7.4341108952999999  7.0132123000000002  0.0000000000000000   F   F   F
  5.7820862684202359  7.0132123000000002  2.2905055204283551   F   F   F
  9.1155253535756700  7.0036790330251559  4.4888837321101596   T   T   T
  5.0456252971539683  5.7368002602086188  6.8045505437295244   T   T   T
  7.5153231805056206  7.0559288045760482  6.7577464247468892   T   T   T
  4.9560739301999996  8.4158547600000002  0.0000000000000000   F   F   F
  8.2601232335202361  8.4158547600000002  2.2905055204283551   F   F   F
  6.6236792470446435  8.4262147061420993  4.5004807126895576   T   T   T
  7.4341108952999999  9.8184972200000011  0.0000000000000000   F   F   F
  5.7820862684202359  9.8184972200000011  2.2905055204283551   F   F   F
  9.0910460848160639  9.8185481118107720  4.4972281289501472   T   T   T
  4.9687642675703660  8.4933878945016890  6.7639355032817150   T   T   T
  7.4526384949069095  9.8309795562448627  6.7742648550035884   T   T   T
  4.7039423319791123  5.1592863578350538  8.6036669610209042   T   T   T
  3.7916296289313771  3.6145217601298723  8.2829794431995651   T   T   T
  ! Dimer Axis Block
0 0 0
0 0 0
0 0 0
0 0 0
0 0 0
0 0 0
0 0 0
0 0 0
0 0 0
0 0 0
0 0 0
0 0 0
0 0 0
0 0 0
0 0 0
0 0 0
0 0 0
0 0 0
0 0 0
0 0 0
0 0 0
0 0 0
0 0 0
0 0 0
0 0 0
0 0 0
0 0 0
0 0 0
0 0 0
0 0 0
0 0 0
0 0 0
0 0 0
0 0 0
0 0 0
0 0 0
0 0 0
0 0 0
0 0 0
0 0 0
0 0 0
0 0 0
0 0 0
0 0 0
0 0 0
0 0 0
0 0 0
0 0 0
0 0 0
0 0 0
0 0 0
0 0 0
0 0 0
0 0 0
0 0 0
0 0 0
0 0 0
0 0 0
0 0 0
0 0 0
0 0 0
0 0 0
0 0 0
0 0 0
0.084885 0.142456 -0.029807
-0.081574 -0.143467 -0.082916
