Pt  O 
 1.0000000000000000
     9.9121478603999993    0.0000000000000000    0.0000000000000000
     0.0000000000000000   11.2211396800000003    0.0000000000000000
     0.0000000000000000    0.0000000000000000   25.0000000000000000
 Pt  O  
  64   2
Selective dynamics
Cartesian
  0.0000000000000000  0.0000000000000000  0.0000000000000000   F   F   F
  3.3040493033202365  0.0000000000000000  2.2905055204283551   F   F   F
  1.6744198999536795 11.2171301287234364  4.4594806772802631   T   T   T
  2.4780369650999998  1.4026424600000000  0.0000000000000000   F   F   F
  0.8260123382202365  1.4026424600000000  2.2905055204283551   F   F   F
  4.1604775956781905  1.4408150389561682  4.5259629432646022   T   T   T
  0.0232432503057965 11.2077501667806345  6.6974756817755248   T   T   T
  2.4674592452945729  1.3929242340551684  6.6938588652696449   T   T   T
  0.0000000000000000  2.8052849200000001  0.0000000000000000   F   F   F
  3.3040493033202365  2.8052849200000001  2.2905055204283551   F   F   F
  1.6547405278037464  2.7931628404211790  4.4512072448679625   T   T   T
  2.4780369650999998  4.2079273800000001  0.0000000000000000   F   F   F
  0.8260123382202365  4.2079273800000001  2.2905055204283551   F   F   F
  4.1211355902553821  4.2079531181702698  4.4786759176981894   T   T   T
  0.0128535582401584  2.7826556439270758  6.7036447349622375   T   T   T
  2.3957823274294898  4.2078756688114680  6.6509247964105525   T   T   T
  0.0000000000000000  5.6105698400000001  0.0000000000000000   F   F   F
  3.3040493033202365  5.6105698400000001  2.2905055204283551   F   F   F
  1.6547031931143918  5.6225258542689298  4.4511972689655073   T   T   T
  2.4780369650999998  7.0132123000000002  0.0000000000000000   F   F   F
  0.8260123382202365  7.0132123000000002  2.2905055204283551   F   F   F
  4.1605343017488758  6.9748038221075586  4.5260810664935329   T   T   T
  0.0128404771552948  5.6329917836425940  6.7036954271283129   T   T   T
  2.4673841380698089  7.0225329870605773  6.6937998128238752   T   T   T
  0.0000000000000000  8.4158547600000002  0.0000000000000000   F   F   F
  3.3040493033202365  8.4158547600000002  2.2905055204283551   F   F   F
  1.6743058655536134  8.4196520512316422  4.4594097187942721   T   T   T
  2.4780369650999998  9.8184972200000011  0.0000000000000000   F   F   F
  0.8260123382202365  9.8184972200000011  2.2905055204283551   F   F   F
  4.1439605663114811  9.8182536775534768  4.4548650404554229   T   T   T
  0.0232811522784180  8.4290200837064049  6.6974733197199630   T   T   T
  2.4948787386350397  9.8183727244420371  6.7037994644282755   T   T   T
  4.9560739301999996  0.0000000000000000  0.0000000000000000   F   F   F
  8.2601232335202361  0.0000000000000000  2.2905055204283551   F   F   F
  6.6160854532118849 11.2211380662435705  4.4665908805184547   T   T   T
  7.4341108952999999  1.4026424600000000  0.0000000000000000   F   F   F
  5.7820862684202359  1.4026424600000000  2.2905055204283551   F   F   F
  9.0981895155344414  1.3986144450784868  4.4557664838250775   T   T   T
  4.9711784294692913 11.1935899398574801  6.7038165978307935   T   T   T
  7.4802772226643395  1.3864791883703240  6.6869267380008850   T   T   T
  4.9560739301999996  2.8052849200000001  0.0000000000000000   F   F   F
  8.2601232335202361  2.8052849200000001  2.2905055204283551   F   F   F
  6.5913409102562932  2.8081120194532070  4.4986580953118800   T   T   T
  7.4341108952999999  4.2079273800000001  0.0000000000000000   F   F   F
  5.7820862684202359  4.2079273800000001  2.2905055204283551   F   F   F
  9.1046718624915357  4.2078587154965641  4.4462399221292728   T   T   T
  4.9708638848927409  2.7946781695582370  6.7819788554256268   T   T   T
  7.5523477657618798  4.2079265802604118  6.6587874387158257   T   T   T
  4.9560739301999996  5.6105698400000001  0.0000000000000000   F   F   F
  8.2601232335202361  5.6105698400000001  2.2905055204283551   F   F   F
  6.5913645602772117  5.6076098592506343  4.4986713355114354   T   T   T
  7.4341108952999999  7.0132123000000002  0.0000000000000000   F   F   F
  5.7820862684202359  7.0132123000000002  2.2905055204283551   F   F   F
  9.0980820212980174  7.0170891848601773  4.4557839019725227   T   T   T
  4.9706625547841812  5.6206596497603822  6.7822559004011920   T   T   T
  7.4802356277243041  7.0292086721122171  6.6870962589146945   T   T   T
  4.9560739301999996  8.4158547600000002  0.0000000000000000   F   F   F
  8.2601232335202361  8.4158547600000002  2.2905055204283551   F   F   F
  6.6161399920213597  8.4156747419269742  4.4665311308198428   T   T   T
  7.4341108952999999  9.8184972200000011  0.0000000000000000   F   F   F
  5.7820862684202359  9.8184972200000011  2.2905055204283551   F   F   F
  9.1019060042363833  9.8184232882200391  4.4585832175533806   T   T   T
  4.9715561151925094  8.4428519032377416  6.7038434853760691   T   T   T
  7.4582031916535509  9.8184248840265180  6.6946944880192998   T   T   T
  4.9758145635696032  3.5211244048365007  8.6556970587886308   T   T   T
  4.9755229062329613  4.8938713989090923  8.6558325876469056   T   T   T
