Pt  O 
 1.0000000000000000
     9.7177920199999992    0.0000000000000000    0.0000000000000000
     0.0000000000000000   10.9967168863999998    0.0000000000000000
     0.0000000000000000    0.0000000000000000   25.0000000000000000
 Pt  O  
  64   2
Selective dynamics
Cartesian
  0.0000000000000000  0.0000000000000000  0.0000000000000000   F   F   F
  3.2392640228629768  0.0000000000000000  2.2905055204283551   F   F   F
  1.6327864771903013  0.0241770151164226  4.5543958710378751   T   T   T
  2.4294480049999998  1.3745896108000000  0.0000000000000000   F   F   F
  0.8098160178629769  1.3745896108000000  2.2905055204283551   F   F   F
  4.0449737993107995  1.3866489319503117  4.5464607185192119   T   T   T
  9.6843781854638280 10.9843312200058421  6.8288531518542053   T   T   T
  2.3657984736517328  1.2567512969230763  6.8621174619082934   T   T   T
  0.0000000000000000  2.7491792215999999  0.0000000000000000   F   F   F
  3.2392640228629768  2.7491792215999999  2.2905055204283551   F   F   F
  1.6331289095367465  2.7718150133354289  4.5731920762534379   T   T   T
  2.4294480049999998  4.1237688323999997  0.0000000000000000   F   F   F
  0.8098160178629769  4.1237688323999997  2.2905055204283551   F   F   F
  4.0385388738445664  4.1237902975489433  4.5839553513817650   T   T   T
  9.6618350592199018  2.7323105515318225  6.8057536694937832   T   T   T
  2.2887359225146082  4.1237730345274386  6.9577762136706172   T   T   T
  0.0000000000000000  5.4983584431999999  0.0000000000000000   F   F   F
  3.2392640228629768  5.4983584431999999  2.2905055204283551   F   F   F
  1.6331153975780228  5.4758146747415566  4.5733574271751021   T   T   T
  2.4294480049999998  6.8729480540000001  0.0000000000000000   F   F   F
  0.8098160178629769  6.8729480540000001  2.2905055204283551   F   F   F
  4.0450049242887385  6.8609566946366964  4.5465222230732172   T   T   T
  9.6617489984270701  5.5150544547524767  6.8058349002387430   T   T   T
  2.3658036700620548  6.9908186028287309  6.8622850758248228   T   T   T
  0.0000000000000000  8.2475376647999994  0.0000000000000000   F   F   F
  3.2392640228629768  8.2475376647999994  2.2905055204283551   F   F   F
  1.6326836073024644  8.2231991947774539  4.5544035940903624   T   T   T
  2.4294480049999998  9.6221272756000005  0.0000000000000000   F   F   F
  0.8098160178629769  9.6221272756000005  2.2905055204283551   F   F   F
  4.0440331887573446  9.6221358235800931  4.5227346445255225   T   T   T
  9.6843983425843199  8.2597332400398233  6.8289699948918372   T   T   T
  2.4113585615706215  9.6220840475625309  6.8299892817633046   T   T   T
  4.8588960099999996  0.0000000000000000  0.0000000000000000   F   F   F
  8.0981600328629764  0.0000000000000000  2.2905055204283551   F   F   F
  6.4847687644560974  0.0007084436952736  4.5169846062454404   T   T   T
  7.2883440149999998  1.3745896108000000  0.0000000000000000   F   F   F
  5.6687120278629761  1.3745896108000000  2.2905055204283551   F   F   F
  8.9101250399736500  1.3792584612720995  4.5173689337333602   T   T   T
  4.8935948982301989 10.9703008173964740  6.7920628998622625   T   T   T
  7.3196022355408852  1.3431556809160536  6.8317960960434254   T   T   T
  4.8588960099999996  2.7491792215999999  0.0000000000000000   F   F   F
  8.0981600328629764  2.7491792215999999  2.2905055204283551   F   F   F
  6.4542935712230136  2.7492827975356295  4.5625004984702375   T   T   T
  7.2883440149999998  4.1237688323999997  0.0000000000000000   F   F   F
  5.6687120278629761  4.1237688323999997  2.2905055204283551   F   F   F
  8.8933325033108428  4.1237608363067801  4.5148982073003054   T   T   T
  4.9978739652509967  2.7286308565241248  6.8824726699329153   T   T   T
  7.3332753545529403  4.1236588222076547  6.8356017921158028   T   T   T
  4.8588960099999996  5.4983584431999999  0.0000000000000000   F   F   F
  8.0981600328629764  5.4983584431999999  2.2905055204283551   F   F   F
  6.4543028636449504  5.4981616887211633  4.5625378928908527   T   T   T
  7.2883440149999998  6.8729480540000001  0.0000000000000000   F   F   F
  5.6687120278629761  6.8729480540000001  2.2905055204283551   F   F   F
  8.9099700268850182  6.8681556794678853  4.5174532057605425   T   T   T
  4.9978823556620657  5.5188808967429637  6.8825404580951792   T   T   T
  7.3194255975764690  6.9043131477053885  6.8317264125642803   T   T   T
  4.8588960099999996  8.2475376647999994  0.0000000000000000   F   F   F
  8.0981600328629764  8.2475376647999994  2.2905055204283551   F   F   F
  6.4847205563408545  8.2468958028516361  4.5169198954333298   T   T   T
  7.2883440149999998  9.6221272756000005  0.0000000000000000   F   F   F
  5.6687120278629761  9.6221272756000005  2.2905055204283551   F   F   F
  8.9315562653224578  9.6220341096072453  4.5157611372706326   T   T   T
  4.8934815473931303  8.2740019613759692  6.7921662081160070   T   T   T
  7.3095074661010706  9.6221045589889904  6.8159928889210670   T   T   T
  3.2990357358411582  2.6434755113104926  8.0101681561171105   T   T   T
  3.2989459377015762  5.6039731939260697  8.0101863829063227   T   T   T
