Pt 
 1.0000000000000000
     4.8588960099999996    0.0000000000000000    0.0000000000000000
     0.0000000000000000    2.7491792215999999    0.0000000000000000
     0.0000000000000000    0.0000000000000000    6.8715166300000003
 Pt 
   6
Cartesian
  0.0000000000000000  0.0000000000000000  0.0000000000000000
  3.2392640228629759  0.0000000000000000  2.2905055204282920
  1.6196319871370231  0.0000000000000000  4.5810111095717074
  2.4294480049999994  1.3745896108000000  0.0000000000000000
  0.8098160178629763  1.3745896108000000  2.2905055204282920
  4.0490799921370222  1.3745896108000000  4.5810111095717074
