Pt  O 
 1.0000000000000000
     9.7177920199999992    0.0000000000000000    0.0000000000000000
     0.0000000000000000   10.9967168863999998    0.0000000000000000
     0.0000000000000000    0.0000000000000000   25.0000000000000000
 Pt  O  
  64   2
Selective dynamics
Cartesian
  0.0000000000000000  0.0000000000000000  0.0000000000000000   F   F   F
  3.2392640228629768  0.0000000000000000  2.2905055204283551   F   F   F
  1.6382210003171433 10.9942813371405972  4.5262494006325777   T   T   T
  2.4294480049999998  1.3745896108000000  0.0000000000000000   F   F   F
  0.8098160178629769  1.3745896108000000  2.2905055204283551   F   F   F
  4.0712632725761129  1.3993936320736142  4.5942631910466147   T   T   T
  0.0118358871373502 10.9893244264757808  6.8222356304192200   T   T   T
  2.4104271977418943  1.3670936955175268  6.8224063295562134   T   T   T
  0.0000000000000000  2.7491792215999999  0.0000000000000000   F   F   F
  3.2392640228629768  2.7491792215999999  2.2905055204283551   F   F   F
  1.6218286520412959  2.7403202736825274  4.5174993846827922   T   T   T
  2.4294480049999998  4.1237688323999997  0.0000000000000000   F   F   F
  0.8098160178629769  4.1237688323999997  2.2905055204283551   F   F   F
  4.0432110148679081  4.1238968352092051  4.5397806835524275   T   T   T
  9.7203794918312418  2.7344575519127803  6.8257139555819677   T   T   T
  2.3617341339841524  4.1240716073419721  6.7710077200330048   T   T   T
  0.0000000000000000  5.4983584431999999  0.0000000000000000   F   F   F
  3.2392640228629768  5.4983584431999999  2.2905055204283551   F   F   F
  1.6217614221823793  5.5071776499558096  4.5173923336339943   T   T   T
  2.4294480049999998  6.8729480540000001  0.0000000000000000   F   F   F
  0.8098160178629769  6.8729480540000001  2.2905055204283551   F   F   F
  4.0712118198606015  6.8483913900430027  4.5945810600291876   T   T   T
  9.7202629230681499  5.5129783715008855  6.8255555267952790   T   T   T
  2.4101993402252444  6.8808329424166486  6.8223216112748997   T   T   T
  0.0000000000000000  8.2475376647999994  0.0000000000000000   F   F   F
  3.2392640228629768  8.2475376647999994  2.2905055204283551   F   F   F
  1.6379874111027308  8.2499120039176042  4.5261869027599353   T   T   T
  2.4294480049999998  9.6221272756000005  0.0000000000000000   F   F   F
  0.8098160178629769  9.6221272756000005  2.2905055204283551   F   F   F
  4.0604793002386934  9.6221636884093442  4.5256485517262250   T   T   T
  0.0120663582380752  8.2555506429777523  6.8227317972346384   T   T   T
  2.4346842658803762  9.6222148409277768  6.8280523899721164   T   T   T
  4.8588960099999996  0.0000000000000000  0.0000000000000000   F   F   F
  8.0981600328629764  0.0000000000000000  2.2905055204283551   F   F   F
  6.4842054136674632 10.9951807854186860  4.5342638487077380   T   T   T
  7.2883440149999998  1.3745896108000000  0.0000000000000000   F   F   F
  5.6687120278629761  1.3745896108000000  2.2905055204283551   F   F   F
  8.9152900342666008  1.3721214779859265  4.5248659860983675   T   T   T
  4.8654337288492515 10.9749466194363645  6.8347330016645573   T   T   T
  7.3168346093099768  1.3611337965586785  6.8141798900549526   T   T   T
  4.8588960099999996  2.7491792215999999  0.0000000000000000   F   F   F
  8.0981600328629764  2.7491792215999999  2.2905055204283551   F   F   F
  6.4658986479959930  2.7496652972584652  4.5612839341593876   T   T   T
  7.2883440149999998  4.1237688323999997  0.0000000000000000   F   F   F
  5.6687120278629761  4.1237688323999997  2.2905055204283551   F   F   F
  8.9169101165254716  4.1237694644454370  4.5109195136627953   T   T   T
  4.8654017656455846  2.7408251930673044  6.9109236986110778   T   T   T
  7.3707023809176242  4.1240480083955307  6.7835650141065278   T   T   T
  4.8588960099999996  5.4983584431999999  0.0000000000000000   F   F   F
  8.0981600328629764  5.4983584431999999  2.2905055204283551   F   F   F
  6.4659837256614869  5.4979019897344026  4.5608715027455125   T   T   T
  7.2883440149999998  6.8729480540000001  0.0000000000000000   F   F   F
  5.6687120278629761  6.8729480540000001  2.2905055204283551   F   F   F
  8.9154313979549151  6.8755856969645004  4.5252101031908545   T   T   T
  4.8654551089810649  5.5064849742663364  6.9105345225449852   T   T   T
  7.3170256638372440  6.8866110871096335  6.8144312291106193   T   T   T
  4.8588960099999996  8.2475376647999994  0.0000000000000000   F   F   F
  8.0981600328629764  8.2475376647999994  2.2905055204283551   F   F   F
  6.4841348177141196  8.2489383734712085  4.5344392072967494   T   T   T
  7.2883440149999998  9.6221272756000005  0.0000000000000000   F   F   F
  5.6687120278629761  9.6221272756000005  2.2905055204283551   F   F   F
  8.9212686683256432  9.6221802309520097  4.5277486079380171   T   T   T
  4.8659266236108216  8.2697914501982162  6.8352591030548897   T   T   T
  7.3071946777933441  9.6221986163631072  6.8218470920268750   T   T   T
  4.8712541574918253  3.4379873387184734  8.8038731491237954   T   T   T
  4.8713593636757553  4.8092893843860960  8.8036482103071361   T   T   T
