Pt  O 
 1.0000000000000000
     9.7177920199999992    0.0000000000000000    0.0000000000000000
     0.0000000000000000   11.4455624736000008    0.0000000000000000
     0.0000000000000000    0.0000000000000000   25.0000000000000000
 Pt  O  
  64   2
Selective dynamics
Cartesian
  0.0000000000000000  0.0000000000000000  0.0000000000000000   F   F   F
  3.2392640228629763  0.0000000000000000  2.2905055204283551   F   F   F
  1.6300801306710304  0.0239293250404145  4.6382959089801306   T   T   T
  2.4294480049999994  1.4306953092000001  0.0000000000000000   F   F   F
  0.8098160178629767  1.4306953092000001  2.2905055204283551   F   F   F
  4.0471441626229918  1.4478073595077354  4.6382959089801306   T   T   T
 -0.0373559115455136 -0.0204520782902131  6.9574438286829992   T   T   T
  2.3623981809962102  1.2881144558235844  6.9574438286829992   T   T   T
  0.0000000000000000  2.8613906184000002  0.0000000000000000   F   F   F
  3.2392640228629763  2.8613906184000002  2.2905055204283551   F   F   F
  1.6396122885591202  2.8830292564573212  4.6382959089801306   T   T   T
  2.4294480049999994  4.2920859276000005  0.0000000000000000   F   F   F
  0.8098160178629767  4.2920859276000005  2.2905055204283551   F   F   F
  4.0444411808486711  4.2920859276000005  4.6382959089801306   T   T   T
 -0.0558423301988467  2.8315682318467572  6.9574438286829992   T   T   T
  2.2674275499204746  4.2920859276000005  6.9574438286829992   T   T   T
  0.0000000000000000  5.7227812368000004  0.0000000000000000   F   F   F
  3.2392640228629763  5.7227812368000004  2.2905055204283551   F   F   F
  1.6396122885591202  5.7011425987426785  4.6382959089801306   T   T   T
  2.4294480049999994  7.1534765460000003  0.0000000000000000   F   F   F
  0.8098160178629767  7.1534765460000003  2.2905055204283551   F   F   F
  4.0471441626229918  7.1363644956922681  4.6382959089801306   T   T   T
 -0.0558423301988467  5.7526036233532372  6.9574438286829992   T   T   T
  2.3623981809962102  7.2960573993764113  6.9574438286829992   T   T   T
  0.0000000000000000  8.5841718552000010  0.0000000000000000   F   F   F
  3.2392640228629763  8.5841718552000010  2.2905055204283551   F   F   F
  1.6300801306710304  8.5602425301595773  4.6382959089801306   T   T   T
  2.4294480049999994 10.0148671644000018  0.0000000000000000   F   F   F
  0.8098160178629767 10.0148671644000018  2.2905055204283551   F   F   F
  4.0428774463261545 10.0148671644000018  4.6382959089801306   T   T   T
 -0.0373559115455136  8.6046239334902168  6.9574438286829992   T   T   T
  2.4059924959804229 10.0148671644000018  6.9574438286829992   T   T   T
  4.8588960099999987  0.0000000000000000  0.0000000000000000   F   F   F
  8.0981600328629746  0.0000000000000000  2.2905055204283551   F   F   F
  6.4802267154973867 -0.0003171485950520  4.6382959089801306   T   T   T
  7.2883440149999990  1.4306953092000001  0.0000000000000000   F   F   F
  5.6687120278629752  1.4306953092000001  2.2905055204283551   F   F   F
  8.9104767801348483  1.4344755862743626  4.6382959089801306   T   T   T
  4.8880701118374779 -0.0317393589613422  6.9574438286829992   T   T   T
  7.3157638476689169  1.3893830703520020  6.9574438286829992   T   T   T
  4.8588960099999987  2.8613906184000002  0.0000000000000000   F   F   F
  8.0981600328629746  2.8613906184000002  2.2905055204283551   F   F   F
  6.4599526156649523  2.8598455035634340  4.6382959089801306   T   T   T
  7.2883440149999990  4.2920859276000005  0.0000000000000000   F   F   F
  5.6687120278629752  4.2920859276000005  2.2905055204283551   F   F   F
  8.9028861213708161  4.2920859276000005  4.6382959089801306   T   T   T
  5.0027486144773086  2.8403358491748958  6.9574438286829992   T   T   T
  7.3360760537415270  4.2920859276000005  6.9574438286829992   T   T   T
  4.8588960099999987  5.7227812368000004  0.0000000000000000   F   F   F
  8.0981600328629746  5.7227812368000004  2.2905055204283551   F   F   F
  6.4599526156649523  5.7243263516365808  4.6382959089801306   T   T   T
  7.2883440149999990  7.1534765460000003  0.0000000000000000   F   F   F
  5.6687120278629752  7.1534765460000003  2.2905055204283551   F   F   F
  8.9104767801348483  7.1496962689256369  4.6382959089801306   T   T   T
  5.0027486144773086  5.7438360060251021  6.9574438286829992   T   T   T
  7.3157638476689169  7.1947887848479883  6.9574438286829992   T   T   T
  4.8588960099999987  8.5841718552000010  0.0000000000000000   F   F   F
  8.0981600328629746  8.5841718552000010  2.2905055204283551   F   F   F
  6.4802267154973867  8.5844890037950563  4.6382959089801306   T   T   T
  7.2883440149999990 10.0148671644000018  0.0000000000000000   F   F   F
  5.6687120278629752 10.0148671644000018  2.2905055204283551   F   F   F
  8.9264182102507661 10.0148671644000018  4.6382959089801306   T   T   T
  4.8880701118374779  8.6159112141613434  6.9574438286829992   T   T   T
  7.3027021052698462 10.0148671644000018  6.9574438286829992   T   T   T
  3.2770649389893847  2.7622672806981017  7.9062229023013897   T   T   T
  3.2770649389893847  5.8219045745019002  7.9062229023013897   T   T   T
