Pt  O 
 1.0000000000000000
     9.7177920199999992    0.0000000000000000    0.0000000000000000
     0.0000000000000000   11.4455624736000008    0.0000000000000000
     0.0000000000000000    0.0000000000000000   25.0000000000000000
 Pt  O  
  64   2
Selective dynamics
Cartesian
  0.0000000000000000  0.0000000000000000  0.0000000000000000   F   F   F
  3.2392640228629768  0.0000000000000000  2.2905055204283551   F   F   F
  1.6275879469454757  0.0244204244872569  4.5378692933087725   T   T   T
  2.4294480049999998  1.4306953092000001  0.0000000000000000   F   F   F
  0.8098160178629769  1.4306953092000001  2.2905055204283551   F   F   F
  4.0478076429645755  1.4383469235988440  4.5400094989644968   T   T   T
  9.6764772977109050 11.4225079298170726  6.8003667737366520   T   T   T
  2.3603907374675903  1.2752179825713095  6.8492644640470850   T   T   T
  0.0000000000000000  2.8613906184000002  0.0000000000000000   F   F   F
  3.2392640228629768  2.8613906184000002  2.2905055204283551   F   F   F
  1.6434960879834459  2.8808851894865106  4.5647790023809245   T   T   T
  2.4294480049999998  4.2920859276000005  0.0000000000000000   F   F   F
  0.8098160178629769  4.2920859276000005  2.2905055204283551   F   F   F
  4.0519037522556909  4.2920989330030519  4.5718385494262925   T   T   T
  9.6569250498299741  2.8287509908881017  6.7657546642994424   T   T   T
  2.2660523408439648  4.2920925874862732  6.9001122282847271   T   T   T
  0.0000000000000000  5.7227812368000004  0.0000000000000000   F   F   F
  3.2392640228629768  5.7227812368000004  2.2905055204283551   F   F   F
  1.6435013323305152  5.7033000491548522  4.5647620585763047   T   T   T
  2.4294480049999998  7.1534765460000003  0.0000000000000000   F   F   F
  0.8098160178629769  7.1534765460000003  2.2905055204283551   F   F   F
  4.0478098556295885  7.1459739845122980  4.5400158949162721   T   T   T
  9.6569254355049399  5.7554375862782825  6.7657278330305504   T   T   T
  2.3604236847094016  7.3089335500985078  6.8492265183664847   T   T   T
  0.0000000000000000  8.5841718552000010  0.0000000000000000   F   F   F
  3.2392640228629768  8.5841718552000010  2.2905055204283551   F   F   F
  1.6275981030125386  8.5597156931967735  4.5378497550691499   T   T   T
  2.4294480049999998 10.0148671644000000  0.0000000000000000   F   F   F
  0.8098160178629769 10.0148671644000000  2.2905055204283551   F   F   F
  4.0397408758224032 10.0148664933310254  4.5087726582490921   T   T   T
  9.6764898558361061  8.6071992946226263  6.8003435209283269   T   T   T
  2.4044533809800304 10.0148450799829902  6.7947308875618955   T   T   T
  4.8588960099999996  0.0000000000000000  0.0000000000000000   F   F   F
  8.0981600328629764  0.0000000000000000  2.2905055204283551   F   F   F
  6.4818851761403877 11.4414521233936757  4.5090196241143303   T   T   T
  7.2883440149999998  1.4306953092000001  0.0000000000000000   F   F   F
  5.6687120278629761  1.4306953092000001  2.2905055204283551   F   F   F
  8.9074722051302153  1.4371612935193498  4.5055357750216052   T   T   T
  4.8889109619245268 11.4022341482350953  6.7740536808238776   T   T   T
  7.3103466397004002  1.3836466222712542  6.8010533946763845   T   T   T
  4.8588960099999996  2.8613906184000002  0.0000000000000000   F   F   F
  8.0981600328629764  2.8613906184000002  2.2905055204283551   F   F   F
  6.4588135059432448  2.8564233081089743  4.5514268266403421   T   T   T
  7.2883440149999998  4.2920859276000005  0.0000000000000000   F   F   F
  5.6687120278629761  4.2920859276000005  2.2905055204283551   F   F   F
  8.9018668500809355  4.2920978470744133  4.5021965515231219   T   T   T
  4.9927873075743960  2.8276039742068275  6.8530080755783578   T   T   T
  7.3231930360885045  4.2920985881816325  6.7892136814178103   T   T   T
  4.8588960099999996  5.7227812368000004  0.0000000000000000   F   F   F
  8.0981600328629764  5.7227812368000004  2.2905055204283551   F   F   F
  6.4588088987787904  5.7277650739386399  4.5514204580814202   T   T   T
  7.2883440149999998  7.1534765460000003  0.0000000000000000   F   F   F
  5.6687120278629761  7.1534765460000003  2.2905055204283551   F   F   F
  8.9074734758468761  7.1469978098809639  4.5055124386270826   T   T   T
  4.9927694809258218  5.7565960476763598  6.8529755747783252   T   T   T
  7.3103466720822601  7.2005269141123103  6.8010169971378280   T   T   T
  4.8588960099999996  8.5841718552000010  0.0000000000000000   F   F   F
  8.0981600328629764  8.5841718552000010  2.2905055204283551   F   F   F
  6.4818904870612188  8.5882713776763122  4.5090042917307427   T   T   T
  7.2883440149999998 10.0148671644000000  0.0000000000000000   F   F   F
  5.6687120278629761 10.0148671644000000  2.2905055204283551   F   F   F
  8.9283480263959287 10.0148497494871798  4.5010814448060348   T   T   T
  4.8889082735876404  8.6274727746093269  6.7740032951098250   T   T   T
  7.3054497557195957 10.0148525250209861  6.7941481063481772   T   T   T
  3.2588464188371069  2.7622010076710550  7.9108435736949980   T   T   T
  3.2588465112894007  5.8219749029206875  7.9108458763836067   T   T   T
