Pt  O 
 1.0000000000000000
     9.7177920199999992    0.0000000000000000    0.0000000000000000
     0.0000000000000000   10.9967168863999998    0.0000000000000000
     0.0000000000000000    0.0000000000000000   25.0000000000000000
 Pt  O  
  64   2
Selective dynamics
Cartesian
  0.0000000000000000  0.0000000000000000  0.0000000000000000   F   F   F
  3.2392640228629768  0.0000000000000000  2.2905055204283551   F   F   F
  1.6388430665578759 10.9936940284334135  4.5832372423672751   T   T   T
  2.4294480049999998  1.3745896108000000  0.0000000000000000   F   F   F
  0.8098160178629769  1.3745896108000000  2.2905055204283551   F   F   F
  4.0687000070798032  1.3962356929935631  4.6574953817437068   T   T   T
  0.0067130425592153 10.9901935810243057  6.9226553826147548   T   T   T
  2.4035171567262421  1.3670058065851751  6.9162664767206268   T   T   T
  0.0000000000000000  2.7491792215999999  0.0000000000000000   F   F   F
  3.2392640228629768  2.7491792215999999  2.2905055204283551   F   F   F
  1.6206550273079698  2.7376928291109248  4.5714253688876347   T   T   T
  2.4294480049999998  4.1237688323999997  0.0000000000000000   F   F   F
  0.8098160178629769  4.1237688323999997  2.2905055204283551   F   F   F
  4.0393499411012410  4.1244936535134302  4.5855894480857122   T   T   T
  9.7166583002142648  2.7342911106189050  6.9246282952828153   T   T   T
  2.3575694868464181  4.1249747750745271  6.8519001644512079   T   T   T
  0.0000000000000000  5.4983584431999999  0.0000000000000000   F   F   F
  3.2392640228629768  5.4983584431999999  2.2905055204283551   F   F   F
  1.6216240442489274  5.5079512269328257  4.5705058187553371   T   T   T
  2.4294480049999998  6.8729480540000001  0.0000000000000000   F   F   F
  0.8098160178629769  6.8729480540000001  2.2905055204283551   F   F   F
  4.0700050048318346  6.8546580241001873  4.6588385200785600   T   T   T
  9.7171413230384083  5.5121119601732591  6.9228891642988177   T   T   T
  2.4028308416731119  6.8814067306537616  6.9145734691061005   T   T   T
  0.0000000000000000  8.2475376647999994  0.0000000000000000   F   F   F
  3.2392640228629768  8.2475376647999994  2.2905055204283551   F   F   F
  1.6399639556796182  8.2511436524620461  4.5822856472659348   T   T   T
  2.4294480049999998  9.6221272756000005  0.0000000000000000   F   F   F
  0.8098160178629769  9.6221272756000005  2.2905055204283551   F   F   F
  4.0613774248612948  9.6226639825626616  4.5839496313022821   T   T   T
  0.0088128696593194  8.2558302883737529  6.9240972625516655   T   T   T
  2.4288908482801475  9.6219367323508322  6.9244085221433869   T   T   T
  4.8588960099999996  0.0000000000000000  0.0000000000000000   F   F   F
  8.0981600328629764  0.0000000000000000  2.2905055204283551   F   F   F
  6.4842243205725945 10.9935833190231200  4.5934544102505876   T   T   T
  7.2883440149999998  1.3745896108000000  0.0000000000000000   F   F   F
  5.6687120278629761  1.3745896108000000  2.2905055204283551   F   F   F
  8.9178998970998737  1.3719976655580230  4.5824801067209471   T   T   T
  4.8636938333699211 10.9761541537784151  6.9327372242383927   T   T   T
  7.3158772136630814  1.3621282292637773  6.9046367582111552   T   T   T
  4.8588960099999996  2.7491792215999999  0.0000000000000000   F   F   F
  8.0981600328629764  2.7491792215999999  2.2905055204283551   F   F   F
  6.4658439022661920  2.7477175279192854  4.6132405437647055   T   T   T
  7.2883440149999998  4.1237688323999997  0.0000000000000000   F   F   F
  5.6687120278629761  4.1237688323999997  2.2905055204283551   F   F   F
  8.9193467282441734  4.1233688233573949  4.5617112150948573   T   T   T
  4.8614668581163745  2.7422522861116176  6.9979001690633647   T   T   T
  7.3691491943468908  4.1246704418676963  6.8639709765861170   T   T   T
  4.8588960099999996  5.4983584431999999  0.0000000000000000   F   F   F
  8.0981600328629764  5.4983584431999999  2.2905055204283551   F   F   F
  6.4672353758469274  5.4998652016263145  4.6098438328310927   T   T   T
  7.2883440149999998  6.8729480540000001  0.0000000000000000   F   F   F
  5.6687120278629761  6.8729480540000001  2.2905055204283551   F   F   F
  8.9195352592759516  6.8762820454183915  4.5831073262015725   T   T   T
  4.8609353015204828  5.5044034179867580  6.9971345423493352   T   T   T
  7.3171788332793781  6.8855928213967275  6.9033964116029400   T   T   T
  4.8588960099999996  8.2475376647999994  0.0000000000000000   F   F   F
  8.0981600328629764  8.2475376647999994  2.2905055204283551   F   F   F
  6.4859565215309711  8.2507180531435704  4.5919745282203372   T   T   T
  7.2883440149999998  9.6221272756000005  0.0000000000000000   F   F   F
  5.6687120278629761  9.6221272756000005  2.2905055204283551   F   F   F
  8.9233726839226222  9.6220174093539832  4.5849684782568119   T   T   T
  4.8657214619880254  8.2696853299083202  6.9339749088403995   T   T   T
  7.3077783811083403  9.6221258634358158  6.9184629318189126   T   T   T
  4.8683543989530245  3.4365252064435290  8.8869636769005496   T   T   T
  4.8682516240209690  4.8061528410234144  8.8872557033886501   T   T   T
