Pt                                      
   1.00000000000000     
     4.8588960099999996    0.0000000000000000    0.0000000000000000
     0.0000000000000000    2.8052849200000001    0.0000000000000000
     0.0000000000000000    0.0000000000000000    6.8715166300000003
   Pt
     6
Direct
  0.0000000000000000  0.0000000000000000  0.0000000000000000
  0.6666666699999979  0.0000000000000000  0.3333333300000021
  0.3333333300000021  0.0000000000000000  0.6666666699999979
  0.5000000000000000  0.5000000000000000  0.0000000000000000
  0.1666666699999979  0.5000000000000000  0.3333333300000021
  0.8333333300000021  0.5000000000000000  0.6666666699999979
 
  0.00000000E+00  0.00000000E+00  0.00000000E+00
  0.00000000E+00  0.00000000E+00  0.00000000E+00
  0.00000000E+00  0.00000000E+00  0.00000000E+00
  0.00000000E+00  0.00000000E+00  0.00000000E+00
  0.00000000E+00  0.00000000E+00  0.00000000E+00
  0.00000000E+00  0.00000000E+00  0.00000000E+00
