Pt  O 
 1.0000000000000000
     9.9121478603999993    0.0000000000000000    0.0000000000000000
     0.0000000000000000   11.2211396800000003    0.0000000000000000
     0.0000000000000000    0.0000000000000000   25.0000000000000000
 Pt  O  
  64   2
Selective dynamics
Cartesian
  0.0000000000000000  0.0000000000000000  0.0000000000000000   F   F   F
  3.3040493033202365  0.0000000000000000  2.2905055204283551   F   F   F
  1.6647685038652575  0.0205721149366231  4.4780217362597430   T   T   T
  2.4780369650999998  1.4026424600000000  0.0000000000000000   F   F   F
  0.8260123382202365  1.4026424600000000  2.2905055204283551   F   F   F
  4.1279093192276379  1.4290961817993306  4.4969412627649445   T   T   T
  9.8848855946962448 11.2057910453127896  6.7027527173145778   T   T   T
  2.4108229628957223  1.2601893994551217  6.7519977916964198   T   T   T
  0.0000000000000000  2.8052849200000001  0.0000000000000000   F   F   F
  3.3040493033202365  2.8052849200000001  2.2905055204283551   F   F   F
  1.6731922947780737  2.8224220106967075  4.5047643335496774   T   T   T
  2.4780369650999998  4.2079273800000001  0.0000000000000000   F   F   F
  0.8260123382202365  4.2079273800000001  2.2905055204283551   F   F   F
  4.1241907960831874  4.2079750922360466  4.5439819264008747   T   T   T
  9.8602879813370592  2.7807482362971920  6.6827701563711832   T   T   T
  2.2840689898112081  4.2079257317039076  6.8434619918702726   T   T   T
  0.0000000000000000  5.6105698400000001  0.0000000000000000   F   F   F
  3.3040493033202365  5.6105698400000001  2.2905055204283551   F   F   F
  1.6731374896563760  5.5934020810538669  4.5047857328658907   T   T   T
  2.4780369650999998  7.0132123000000002  0.0000000000000000   F   F   F
  0.8260123382202365  7.0132123000000002  2.2905055204283551   F   F   F
  4.1278724370377358  6.9868240768569185  4.4969625052193045   T   T   T
  9.8603216986259419  5.6351189162852204  6.6828122684729321   T   T   T
  2.4108038831843088  7.1557226070757425  6.7519963795063003   T   T   T
  0.0000000000000000  8.4158547600000002  0.0000000000000000   F   F   F
  3.3040493033202365  8.4158547600000002  2.2905055204283551   F   F   F
  1.6647401084119204  8.3953042941668858  4.4780191365963251   T   T   T
  2.4780369650999998  9.8184972200000011  0.0000000000000000   F   F   F
  0.8260123382202365  9.8184972200000011  2.2905055204283551   F   F   F
  4.1277290767471966  9.8184983966278665  4.4598654784813130   T   T   T
  9.8849113378260594  8.4312413092504848  6.7027749107294632   T   T   T
  2.4609572390062673  9.8184982739176956  6.7003819261769220   T   T   T
  4.9560739301999996  0.0000000000000000  0.0000000000000000   F   F   F
  8.2601232335202361  0.0000000000000000  2.2905055204283551   F   F   F
  6.6139474870943991 11.2217695572456009  4.4557515780812178   T   T   T
  7.4341108952999999  1.4026424600000000  0.0000000000000000   F   F   F
  5.7820862684202359  1.4026424600000000  2.2905055204283551   F   F   F
  9.0922656089120988  1.4054049297371514  4.4484300588178503   T   T   T
  4.9959918612716772 11.1954636207102460  6.6754178680458773   T   T   T
  7.4816750810720301  1.3647347642926708  6.7061932761630194   T   T   T
  4.9560739301999996  2.8052849200000001  0.0000000000000000   F   F   F
  8.2601232335202361  2.8052849200000001  2.2905055204283551   F   F   F
  6.5994956220735723  2.8043298975015727  4.4861474918269346   T   T   T
  7.4341108952999999  4.2079273800000001  0.0000000000000000   F   F   F
  5.7820862684202359  4.2079273800000001  2.2905055204283551   F   F   F
  9.0860974684589415  4.2079615381750939  4.4465791584158678   T   T   T
  5.1418680824721301  2.7915985765845184  6.7715102624553571   T   T   T
  7.4981317212045280  4.2079827260560245  6.7029229627322024   T   T   T
  4.9560739301999996  5.6105698400000001  0.0000000000000000   F   F   F
  8.2601232335202361  5.6105698400000001  2.2905055204283551   F   F   F
  6.5994405173611117  5.6115812888733476  4.4861082212426053   T   T   T
  7.4341108952999999  7.0132123000000002  0.0000000000000000   F   F   F
  5.7820862684202359  7.0132123000000002  2.2905055204283551   F   F   F
  9.0922410152452677  7.0104590220328378  4.4484449434413271   T   T   T
  5.1418812954072175  5.6242992193527073  6.7715537018461918   T   T   T
  7.4816916512687088  7.0512033170017059  6.7061727841498966   T   T   T
  4.9560739301999996  8.4158547600000002  0.0000000000000000   F   F   F
  8.2601232335202361  8.4158547600000002  2.2905055204283551   F   F   F
  6.6139611274116810  8.4152820942913493  4.4557422215187197   T   T   T
  7.4341108952999999  9.8184972200000011  0.0000000000000000   F   F   F
  5.7820862684202359  9.8184972200000011  2.2905055204283551   F   F   F
  9.1101390820956780  9.8185083007216498  4.4471869921617975   T   T   T
  4.9960783615543436  8.4415336934358898  6.6754152071039270   T   T   T
  7.4608659191789863  9.8185371577823233  6.6939509057568802   T   T   T
  3.3726952952115288  2.7151403389051350  7.7968269216075470   T   T   T
  3.3726937320094725  5.7007649599508001  7.7967890466095993   T   T   T
