Pt  O                                   
   1.00000000000000     
     9.7177920199999992    0.0000000000000000    0.0000000000000000
     0.0000000000000000   11.2211396800000003    0.0000000000000000
     0.0000000000000000    0.0000000000000000   25.0000000000000000
   Pt   O 
    64     2
Selective dynamics
Direct
  0.0000000000000000  0.0000000000000000  0.0000000000000000   F   F   F
  0.3333333349999990  0.0000000000000000  0.0916202208171342   F   F   F
  0.1681796570090958 -0.0002703846388177  0.1796217752041476   T   T   T
  0.2500000000000000  0.1250000000000000  0.0000000000000000   F   F   F
  0.0833333349999990  0.1250000000000000  0.0916202208171342   F   F   F
  0.4191570685175752  0.1277527577632371  0.1824260322110286   T   T   T
  0.0009911782476066 -0.0012121074055481  0.2704581234883688   T   T   T
  0.2478892155595663  0.1236971355026567  0.2701598749103755   T   T   T
  0.0000000000000000  0.2500000000000000  0.0000000000000000   F   F   F
  0.3333333349999990  0.2500000000000000  0.0916202208171342   F   F   F
  0.1668467733210720  0.2490850438337165  0.1793231495152586   T   T   T
  0.2500000000000000  0.3750000000000000  0.0000000000000000   F   F   F
  0.0833333349999990  0.3750000000000000  0.0916202208171342   F   F   F
  0.4164997058116040  0.3749881191625969  0.1802567886148166   T   T   T
 -0.0000349922313787  0.2478037189060206  0.2704040540172666   T   T   T
  0.2419353430452574  0.3749902037162526  0.2681619787853625   T   T   T
  0.0000000000000000  0.5000000000000000  0.0000000000000000   F   F   F
  0.3333333349999990  0.5000000000000000  0.0916202208171342   F   F   F
  0.1668542138966882  0.5009055563823923  0.1793235704973029   T   T   T
  0.2500000000000000  0.6250000000000000  0.0000000000000000   F   F   F
  0.0833333349999990  0.6250000000000000  0.0916202208171342   F   F   F
  0.4191535140250189  0.6222294559823462  0.1824288674439103   T   T   T
 -0.0000467531466425  0.5021691929419865  0.2704055432510201   T   T   T
  0.2478816905520548  0.6262683958416109  0.2701635397406956   T   T   T
  0.0000000000000000  0.7500000000000000  0.0000000000000000   F   F   F
  0.3333333349999990  0.7500000000000000  0.0916202208171342   F   F   F
  0.1681798972200870  0.7502615101864153  0.1796234237372294   T   T   T
  0.2500000000000000  0.8750000000000000  0.0000000000000000   F   F   F
  0.0833333349999990  0.8750000000000000  0.0916202208171342   F   F   F
  0.4174846666408452  0.8749927266754025  0.1796449603387548   T   T   T
  0.0009887041629807  0.7511961319850629  0.2704565494907854   T   T   T
  0.2504714335355279  0.8749912335614769  0.2706777103189005   T   T   T
  0.5000000000000000  0.0000000000000000  0.0000000000000000   F   F   F
  0.8333333349999990  0.0000000000000000  0.0916202208171342   F   F   F
  0.6667967819291472 -0.0001114322917917  0.1799430204384662   T   T   T
  0.7500000000000000  0.1250000000000000  0.0000000000000000   F   F   F
  0.5833333349999990  0.1250000000000000  0.0916202208171342   F   F   F
  0.9173024408637122  0.1245518832339839  0.1796013117093497   T   T   T
  0.5004383730262126 -0.0024234021389391  0.2708892881413246   T   T   T
  0.7528469501004589  0.1232013824067737  0.2700025610681638   T   T   T
  0.5000000000000000  0.2500000000000000  0.0000000000000000   F   F   F
  0.8333333349999990  0.2500000000000000  0.0916202208171342   F   F   F
  0.6653521201389179  0.2500417693846545  0.1811170055906055   T   T   T
  0.7500000000000000  0.3750000000000000  0.0000000000000000   F   F   F
  0.5833333349999990  0.3750000000000000  0.0916202208171342   F   F   F
  0.9179830512540238  0.3749975866488692  0.1791932231075699   T   T   T
  0.5005924947422115  0.2491286532873947  0.2737696211857524   T   T   T
  0.7590334983654605  0.3749943050702946  0.2687961565154632   T   T   T
  0.5000000000000000  0.5000000000000000  0.0000000000000000   F   F   F
  0.8333333349999990  0.5000000000000000  0.0916202208171342   F   F   F
  0.6653416761275004  0.4999416226588889  0.1811192923294676   T   T   T
  0.7500000000000000  0.6250000000000000  0.0000000000000000   F   F   F
  0.5833333349999990  0.6250000000000000  0.0916202208171342   F   F   F
  0.9172950316123878  0.6254341552128048  0.1796021679794412   T   T   T
  0.5005802391456150  0.5008252883980829  0.2737778908279049   T   T   T
  0.7528352611495605  0.6267742809808973  0.2700013317576836   T   T   T
  0.5000000000000000  0.7500000000000000  0.0000000000000000   F   F   F
  0.8333333349999990  0.7500000000000000  0.0916202208171342   F   F   F
  0.6667889242200691  0.7501140158079961  0.1799414535787691   T   T   T
  0.7500000000000000  0.8750000000000000  0.0000000000000000   F   F   F
  0.5833333349999990  0.8750000000000000  0.0916202208171342   F   F   F
  0.9176041624748312  0.8749918301330526  0.1796761538509997   T   T   T
  0.5004248971651973  0.7523867107102545  0.2708926501908839   T   T   T
  0.7515008688884611  0.8749836962856142  0.2702755499556087   T   T   T
  0.5006676722104544  0.3137890798454370  0.3489075089738033   T   T   T
  0.5006359278279042  0.4361470087544253  0.3489125378451046   T   T   T
 
  0.00000000E+00  0.00000000E+00  0.00000000E+00
  0.00000000E+00  0.00000000E+00  0.00000000E+00
  0.00000000E+00  0.00000000E+00  0.00000000E+00
  0.00000000E+00  0.00000000E+00  0.00000000E+00
  0.00000000E+00  0.00000000E+00  0.00000000E+00
  0.00000000E+00  0.00000000E+00  0.00000000E+00
  0.00000000E+00  0.00000000E+00  0.00000000E+00
  0.00000000E+00  0.00000000E+00  0.00000000E+00
  0.00000000E+00  0.00000000E+00  0.00000000E+00
  0.00000000E+00  0.00000000E+00  0.00000000E+00
  0.00000000E+00  0.00000000E+00  0.00000000E+00
  0.00000000E+00  0.00000000E+00  0.00000000E+00
  0.00000000E+00  0.00000000E+00  0.00000000E+00
  0.00000000E+00  0.00000000E+00  0.00000000E+00
  0.00000000E+00  0.00000000E+00  0.00000000E+00
  0.00000000E+00  0.00000000E+00  0.00000000E+00
  0.00000000E+00  0.00000000E+00  0.00000000E+00
  0.00000000E+00  0.00000000E+00  0.00000000E+00
  0.00000000E+00  0.00000000E+00  0.00000000E+00
  0.00000000E+00  0.00000000E+00  0.00000000E+00
  0.00000000E+00  0.00000000E+00  0.00000000E+00
  0.00000000E+00  0.00000000E+00  0.00000000E+00
  0.00000000E+00  0.00000000E+00  0.00000000E+00
  0.00000000E+00  0.00000000E+00  0.00000000E+00
  0.00000000E+00  0.00000000E+00  0.00000000E+00
  0.00000000E+00  0.00000000E+00  0.00000000E+00
  0.00000000E+00  0.00000000E+00  0.00000000E+00
  0.00000000E+00  0.00000000E+00  0.00000000E+00
  0.00000000E+00  0.00000000E+00  0.00000000E+00
  0.00000000E+00  0.00000000E+00  0.00000000E+00
  0.00000000E+00  0.00000000E+00  0.00000000E+00
  0.00000000E+00  0.00000000E+00  0.00000000E+00
  0.00000000E+00  0.00000000E+00  0.00000000E+00
  0.00000000E+00  0.00000000E+00  0.00000000E+00
  0.00000000E+00  0.00000000E+00  0.00000000E+00
  0.00000000E+00  0.00000000E+00  0.00000000E+00
  0.00000000E+00  0.00000000E+00  0.00000000E+00
  0.00000000E+00  0.00000000E+00  0.00000000E+00
  0.00000000E+00  0.00000000E+00  0.00000000E+00
  0.00000000E+00  0.00000000E+00  0.00000000E+00
  0.00000000E+00  0.00000000E+00  0.00000000E+00
  0.00000000E+00  0.00000000E+00  0.00000000E+00
  0.00000000E+00  0.00000000E+00  0.00000000E+00
  0.00000000E+00  0.00000000E+00  0.00000000E+00
  0.00000000E+00  0.00000000E+00  0.00000000E+00
  0.00000000E+00  0.00000000E+00  0.00000000E+00
  0.00000000E+00  0.00000000E+00  0.00000000E+00
  0.00000000E+00  0.00000000E+00  0.00000000E+00
  0.00000000E+00  0.00000000E+00  0.00000000E+00
  0.00000000E+00  0.00000000E+00  0.00000000E+00
  0.00000000E+00  0.00000000E+00  0.00000000E+00
  0.00000000E+00  0.00000000E+00  0.00000000E+00
  0.00000000E+00  0.00000000E+00  0.00000000E+00
  0.00000000E+00  0.00000000E+00  0.00000000E+00
  0.00000000E+00  0.00000000E+00  0.00000000E+00
  0.00000000E+00  0.00000000E+00  0.00000000E+00
  0.00000000E+00  0.00000000E+00  0.00000000E+00
  0.00000000E+00  0.00000000E+00  0.00000000E+00
  0.00000000E+00  0.00000000E+00  0.00000000E+00
  0.00000000E+00  0.00000000E+00  0.00000000E+00
  0.00000000E+00  0.00000000E+00  0.00000000E+00
  0.00000000E+00  0.00000000E+00  0.00000000E+00
  0.00000000E+00  0.00000000E+00  0.00000000E+00
  0.00000000E+00  0.00000000E+00  0.00000000E+00
  0.00000000E+00  0.00000000E+00  0.00000000E+00
  0.00000000E+00  0.00000000E+00  0.00000000E+00
