Pt 
 1.0000000000000000
     4.7617180897999996    0.0000000000000000    0.0000000000000000
     0.0000000000000000    2.8052849200000001    0.0000000000000000
     0.0000000000000000    0.0000000000000000    6.8715166300000003
 Pt 
   6
Cartesian
  0.0000000000000000  0.0000000000000000  0.0000000000000000
  3.1744787424057166  0.0000000000000000  2.2905055204282920
  1.5872393473942825  0.0000000000000000  4.5810111095717074
  2.3808590448999993  1.4026424600000000  0.0000000000000000
  0.7936196975057168  1.4026424600000000  2.2905055204282920
  3.9680983922942823  1.4026424600000000  4.5810111095717074
