Pt  O                                   
   1.00000000000000     
     9.9121478603999993    0.0000000000000000    0.0000000000000000
     0.0000000000000000   11.2211396800000003    0.0000000000000000
     0.0000000000000000    0.0000000000000000   25.0000000000000000
   Pt   O 
    64     2
Selective dynamics
Direct
  0.0000000000000000  0.0000000000000000  0.0000000000000000   F   F   F
  0.3333333349999990  0.0000000000000000  0.0916202208171342   F   F   F
  0.1660194076099846  0.9993311568375862  0.1779545569140055   T   T   T
  0.2500000000000000  0.1250000000000000  0.0000000000000000   F   F   F
  0.0833333349999990  0.1250000000000000  0.0916202208171342   F   F   F
  0.4165050158343602  0.1270660363226609  0.1795796458514910   T   T   T
  0.9984521614889850  0.9995382680692969  0.2683825662648174   T   T   T
  0.2434914231912137  0.1188326635372618  0.2668708700377115   T   T   T
  0.0000000000000000  0.2500000000000000  0.0000000000000000   F   F   F
  0.3333333349999990  0.2500000000000000  0.0916202208171342   F   F   F
  0.1670058690562706  0.2502197982773330  0.1789588595245751   T   T   T
  0.2500000000000000  0.3749999999999999  0.0000000000000000   F   F   F
  0.0833333349999990  0.3749999999999999  0.0916202208171342   F   F   F
  0.4180806533904749  0.3770847890016774  0.1808559647969087   T   T   T
  0.9979119290356926  0.2470381710613511  0.2681638664245324   T   T   T
  0.2455464720356682  0.3736927320507204  0.2706477754184812   T   T   T
  0.0000000000000000  0.4999999999999999  0.0000000000000000   F   F   F
  0.3333333349999990  0.4999999999999999  0.0916202208171342   F   F   F
  0.1705642025016419  0.4966557493917438  0.1798939389724988   T   T   T
  0.2500000000000000  0.6249999999999999  0.0000000000000000   F   F   F
  0.0833333349999990  0.6249999999999999  0.0916202208171342   F   F   F
  0.4213063070504384  0.6255231085916961  0.1799845503645930   T   T   T
  0.0033995112823411  0.4999340142185361  0.2678119772982042   T   T   T
  0.2506601301334999  0.6276102821529315  0.2665852769398999   T   T   T
  0.0000000000000000  0.7499999999999999  0.0000000000000000   F   F   F
  0.3333333349999990  0.7499999999999999  0.0916202208171342   F   F   F
  0.1685191333557921  0.7497053078732410  0.1779766090819115   T   T   T
  0.2500000000000000  0.8749999999999999  0.0000000000000000   F   F   F
  0.0833333349999990  0.8749999999999999  0.0916202208171342   F   F   F
  0.4166325613486150  0.8763724334799435  0.1782258858419893   T   T   T
  0.0037428191756524  0.7512195663486162  0.2680252599265895   T   T   T
  0.2507309113366458  0.8749376193751121  0.2680025981831131   T   T   T
  0.5000000000000000  0.0000000000000000  0.0000000000000000   F   F   F
  0.8333333349999991  0.0000000000000000  0.0916202208171342   F   F   F
  0.6670082156700725  0.0001670249898864  0.1786518907456225   T   T   T
  0.7500000000000001  0.1250000000000000  0.0000000000000000   F   F   F
  0.5833333349999990  0.1250000000000000  0.0916202208171342   F   F   F
  0.9158029626360519  0.1249211483037482  0.1783387977840579   T   T   T
  0.5009223995919712  0.0006951516406037  0.2678680278374945   T   T   T
  0.7516855045905234  0.1244933424657119  0.2682575560839435   T   T   T
  0.5000000000000000  0.2500000000000000  0.0000000000000000   F   F   F
  0.8333333349999991  0.2500000000000000  0.0916202208171342   F   F   F
  0.6631680667915879  0.2498488678273864  0.1801409836943980   T   T   T
  0.7500000000000001  0.3749999999999999  0.0000000000000000   F   F   F
  0.5833333349999990  0.3749999999999999  0.0916202208171342   F   F   F
  0.9180660266946553  0.3744740864314225  0.1779502354316222   T   T   T
  0.5099351026678487  0.2515601359709041  0.2706907569959430   T   T   T
  0.7592706879009486  0.3757860570785658  0.2670806382768893   T   T   T
  0.5000000000000000  0.4999999999999999  0.0000000000000000   F   F   F
  0.8333333349999991  0.4999999999999999  0.0916202208171342   F   F   F
  0.6678030898108621  0.5019548420319100  0.1799519219148575   T   T   T
  0.7500000000000001  0.6249999999999999  0.0000000000000000   F   F   F
  0.5833333349999990  0.6249999999999999  0.0916202208171342   F   F   F
  0.9211691874725362  0.6243808296864117  0.1780890205747792   T   T   T
  0.5140619873390324  0.5121141218334461  0.2697853574425652   T   T   T
  0.7624597755230998  0.6291676854967203  0.2678469256592384   T   T   T
  0.5000000000000000  0.7499999999999999  0.0000000000000000   F   F   F
  0.8333333349999991  0.7499999999999999  0.0916202208171342   F   F   F
  0.6697067787084098  0.7512202551969684  0.1787507759428057   T   T   T
  0.7500000000000001  0.8749999999999999  0.0000000000000000   F   F   F
  0.5833333349999990  0.8749999999999999  0.0916202208171342   F   F   F
  0.9181488310118722  0.8749232288850264  0.1784581113693594   T   T   T
  0.5043210039052292  0.7578855746264646  0.2678216589801840   T   T   T
  0.7533794615003255  0.8767558714752705  0.2683304185054106   T   T   T
  0.4694325304412802  0.4611853252128970  0.3395795364413451   T   T   T
  0.3837245419868975  0.3247348540904536  0.3270891681738107   T   T   T
 
  0.00000000E+00  0.00000000E+00  0.00000000E+00
  0.00000000E+00  0.00000000E+00  0.00000000E+00
 -0.29056674E-02  0.48948928E-02  0.16790643E-02
  0.00000000E+00  0.00000000E+00  0.00000000E+00
  0.00000000E+00  0.00000000E+00  0.00000000E+00
  0.14682727E-02  0.61025687E-02  0.88172839E-02
 -0.60268673E-02 -0.82268820E-02  0.59242109E-04
 -0.20680957E-01 -0.38310956E-01 -0.16371629E-02
  0.00000000E+00  0.00000000E+00  0.00000000E+00
  0.00000000E+00  0.00000000E+00  0.00000000E+00
  0.74483630E-03  0.30074247E-02  0.31106673E-02
  0.00000000E+00  0.00000000E+00  0.00000000E+00
  0.00000000E+00  0.00000000E+00  0.00000000E+00
  0.12456172E-01  0.90290704E-02  0.44847125E-01
 -0.11892953E-01 -0.25300722E-02  0.26691066E-02
  0.27155817E-02 -0.21045466E-01  0.77196510E-01
  0.00000000E+00  0.00000000E+00  0.00000000E+00
  0.00000000E+00  0.00000000E+00  0.00000000E+00
  0.17143315E-01 -0.14998129E-01  0.25570586E-01
  0.00000000E+00  0.00000000E+00  0.00000000E+00
  0.00000000E+00  0.00000000E+00  0.00000000E+00
 -0.58160637E-02 -0.35848771E-02  0.19141855E-01
  0.88494365E-02 -0.12576492E-01 -0.42575803E-02
 -0.12841639E-01 -0.47975355E-02  0.84182399E-02
  0.00000000E+00  0.00000000E+00  0.00000000E+00
  0.00000000E+00  0.00000000E+00  0.00000000E+00
 -0.33655244E-02 -0.64285884E-02 -0.19439999E-02
  0.00000000E+00  0.00000000E+00  0.00000000E+00
  0.00000000E+00  0.00000000E+00  0.00000000E+00
 -0.53652119E-02  0.49611816E-02  0.53627994E-02
 -0.77239952E-02  0.84179709E-03  0.23084097E-02
  0.35197516E-02 -0.13626192E-01  0.12610933E-02
  0.00000000E+00  0.00000000E+00  0.00000000E+00
  0.00000000E+00  0.00000000E+00  0.00000000E+00
 -0.42150506E-03  0.14923776E-02 -0.31207078E-02
  0.00000000E+00  0.00000000E+00  0.00000000E+00
  0.00000000E+00  0.00000000E+00  0.00000000E+00
 -0.22914608E-02  0.78328142E-02 -0.16920270E-02
  0.67192125E-02 -0.62760376E-02  0.52483422E-03
 -0.15381793E-01  0.85417271E-02 -0.49397816E-02
  0.00000000E+00  0.00000000E+00  0.00000000E+00
  0.00000000E+00  0.00000000E+00  0.00000000E+00
 -0.15709782E-01  0.10171158E-01  0.16299220E-01
  0.00000000E+00  0.00000000E+00  0.00000000E+00
  0.00000000E+00  0.00000000E+00  0.00000000E+00
 -0.30283292E-02 -0.38753356E-02 -0.56201998E-02
 -0.25271096E-01 -0.21812961E-01  0.73629598E-01
  0.82524014E-02 -0.13939751E-01  0.15277014E-02
  0.00000000E+00  0.00000000E+00  0.00000000E+00
  0.00000000E+00  0.00000000E+00  0.00000000E+00
  0.27865387E-02 -0.11076528E-01  0.14185077E-01
  0.00000000E+00  0.00000000E+00  0.00000000E+00
  0.00000000E+00  0.00000000E+00  0.00000000E+00
  0.53942063E-02 -0.59825817E-02 -0.14076065E-02
 -0.78162576E-02  0.46187132E-01  0.68086739E-01
  0.11969042E-01  0.11334422E-01 -0.14823279E-01
  0.00000000E+00  0.00000000E+00  0.00000000E+00
  0.00000000E+00  0.00000000E+00  0.00000000E+00
  0.10754916E-02 -0.18194527E-03 -0.44395388E-02
  0.00000000E+00  0.00000000E+00  0.00000000E+00
  0.00000000E+00  0.00000000E+00  0.00000000E+00
  0.10975817E-02 -0.15120116E-02 -0.55437190E-02
  0.29145141E-02  0.34175161E-01 -0.93747192E-02
  0.89665542E-02  0.45433258E-02 -0.77603659E-03
  0.35143965E+00  0.55679159E+00 -0.59690810E-01
 -0.31201185E+00 -0.59779141E+00 -0.27856983E+00
