Pt  O 
 1.0000000000000000
     9.7177920199999992    0.0000000000000000    0.0000000000000000
     0.0000000000000000   10.9967168863999998    0.0000000000000000
     0.0000000000000000    0.0000000000000000   25.0000000000000000
 Pt  O  
  64   2
Selective dynamics
Cartesian
  0.0000000000000000  0.0000000000000000  0.0000000000000000   F   F   F
  3.2392640228629763  0.0000000000000000  2.2905055204283551   F   F   F
  1.6300801306710304  0.0229909201368688  4.5245179779042655   T   T   T
  2.4294480049999994  1.3745896108000000  0.0000000000000000   F   F   F
  0.8098160178629767  1.3745896108000000  2.2905055204283551   F   F   F
  4.0471441626229918  1.3910306003113535  4.5245179779042655   T   T   T
 -0.0373559115455136 -0.0196500360043224  6.7867769329225345   T   T   T
  2.3623981809962102  1.2376001634383456  6.7867769329225345   T   T   T
  0.0000000000000000  2.7491792215999999  0.0000000000000000   F   F   F
  3.2392640228629763  2.7491792215999999  2.2905055204283551   F   F   F
  1.6396122885591202  2.7699692856158573  4.5245179779042655   T   T   T
  2.4294480049999994  4.1237688323999997  0.0000000000000000   F   F   F
  0.8098160178629767  4.1237688323999997  2.2905055204283551   F   F   F
  4.0444411808486711  4.1237688323999997  4.5245179779042655   T   T   T
 -0.0558423301988467  2.7205263404017859  6.7867769329225345   T   T   T
  2.2674275499204746  4.1237688323999997  6.7867769329225345   T   T   T
  0.0000000000000000  5.4983584431999999  0.0000000000000000   F   F   F
  3.2392640228629763  5.4983584431999999  2.2905055204283551   F   F   F
  1.6396122885591202  5.4775683791841425  4.5245179779042655   T   T   T
  2.4294480049999994  6.8729480540000001  0.0000000000000000   F   F   F
  0.8098160178629767  6.8729480540000001  2.2905055204283551   F   F   F
  4.0471441626229918  6.8565070644886497  4.5245179779042655   T   T   T
 -0.0558423301988467  5.5270113243982086  6.7867769329225345   T   T   T
  2.3623981809962102  7.0099375013616489  6.7867769329225345   T   T   T
  0.0000000000000000  8.2475376647999994  0.0000000000000000   F   F   F
  3.2392640228629763  8.2475376647999994  2.2905055204283551   F   F   F
  1.6300801306710304  8.2245467446631224  4.5245179779042655   T   T   T
  2.4294480049999994  9.6221272756000005  0.0000000000000000   F   F   F
  0.8098160178629767  9.6221272756000005  2.2905055204283551   F   F   F
  4.0428774463261545  9.6221272756000005  4.5245179779042655   T   T   T
 -0.0373559115455136  8.2671877008043246  6.7867769329225345   T   T   T
  2.4059924959804229  9.6221272756000005  6.7867769329225345   T   T   T
  4.8588960099999987  0.0000000000000000  0.0000000000000000   F   F   F
  8.0981600328629746  0.0000000000000000  2.2905055204283551   F   F   F
  6.4802267154973867 -0.0003047113952460  4.5245179779042655   T   T   T
  7.2883440149999990  1.3745896108000000  0.0000000000000000   F   F   F
  5.6687120278629752  1.3745896108000000  2.2905055204283551   F   F   F
  8.9104767801348483  1.3782216417145834  4.5245179779042655   T   T   T
  4.8880701118374779 -0.0304946782177602  6.7867769329225345   T   T   T
  7.3157638476689169  1.3348974597499628  6.7867769329225345   T   T   T
  4.8588960099999987  2.7491792215999999  0.0000000000000000   F   F   F
  8.0981600328629746  2.7491792215999999  2.2905055204283551   F   F   F
  6.4599526156649523  2.7476946995021225  4.5245179779042655   T   T   T
  7.2883440149999990  4.1237688323999997  0.0000000000000000   F   F   F
  5.6687120278629752  4.1237688323999997  2.2905055204283551   F   F   F
  8.9028861213708161  4.1237688323999997  4.5245179779042655   T   T   T
  5.0027486144773086  2.7289501295994092  6.7867769329225345   T   T   T
  7.3360760537415270  4.1237688323999997  6.7867769329225345   T   T   T
  4.8588960099999987  5.4983584431999999  0.0000000000000000   F   F   F
  8.0981600328629746  5.4983584431999999  2.2905055204283551   F   F   F
  6.4599526156649523  5.4998429652978906  4.5245179779042655   T   T   T
  7.2883440149999990  6.8729480540000001  0.0000000000000000   F   F   F
  5.6687120278629752  6.8729480540000001  2.2905055204283551   F   F   F
  8.9104767801348483  6.8693160230854149  4.5245179779042655   T   T   T
  5.0027486144773086  5.5185875352005880  6.7867769329225345   T   T   T
  7.3157638476689169  6.9126402050500282  6.7867769329225345   T   T   T
  4.8588960099999987  8.2475376647999994  0.0000000000000000   F   F   F
  8.0981600328629746  8.2475376647999994  2.2905055204283551   F   F   F
  6.4802267154973867  8.2478423761952513  4.5245179779042655   T   T   T
  7.2883440149999990  9.6221272756000005  0.0000000000000000   F   F   F
  5.6687120278629752  9.6221272756000005  2.2905055204283551   F   F   F
  8.9264182102507661  9.6221272756000005  4.5245179779042655   T   T   T
  4.8880701118374779  8.2780323430177596  6.7867769329225345   T   T   T
  7.3027021052698462  9.6221272756000005  6.7867769329225345   T   T   T
  3.2770649389893847  2.6539430736119014  7.9062229023013897   T   T   T
  3.2770649389893847  5.5935945911881007  7.9062229023013897   T   T   T
