Pt                                      
   1.00000000000000     
     4.8588960099999996    0.0000000000000000    0.0000000000000000
     0.0000000000000000    2.7491792215999999    0.0000000000000000
     0.0000000000000000    0.0000000000000000   25.0000000000000000
   Pt
     8
Selective dynamics
Direct
  0.0000000000000000  0.0000000000000000  0.0000000000000000   F   F   F
  0.6666666699999979  0.0000000000000000  0.0927820184252184   F   F   F
  0.3333333300000021  0.0000000000000000  0.1849460770618020   F   F   T
  0.5000000000000000  0.5000000000000000  0.0000000000000000   F   F   F
  0.1666666699999979  0.5000000000000000  0.0927820184252184   F   F   F
  0.8333333300000021  0.5000000000000000  0.1849463230364075   F   F   T
  0.0000000000000000  0.0000000000000000  0.2781518238138999   F   F   T
  0.5000000000000000  0.5000000000000000  0.2781495119141689   F   F   T
 
  0.00000000E+00  0.00000000E+00  0.00000000E+00
  0.00000000E+00  0.00000000E+00  0.00000000E+00
  0.00000000E+00  0.00000000E+00  0.00000000E+00
  0.00000000E+00  0.00000000E+00  0.00000000E+00
  0.00000000E+00  0.00000000E+00  0.00000000E+00
  0.00000000E+00  0.00000000E+00  0.00000000E+00
  0.00000000E+00  0.00000000E+00  0.00000000E+00
  0.00000000E+00  0.00000000E+00  0.00000000E+00
