Pt 
 1.0000000000000000
     4.8588960099999996    0.0000000000000000    0.0000000000000000
     0.0000000000000000    2.7491792215999999    0.0000000000000000
     0.0000000000000000    0.0000000000000000   25.0000000000000000
 Pt 
   8
Selective dynamics
Cartesian
  0.0000000000000000  0.0000000000000000  0.0000000000000000   F   F   F
  3.2392640228629763  0.0000000000000000  2.3195504606305231   F   F   F
  1.6196319871370233  0.0000000000000000  4.6391009908475169   F   F   T
  2.4294480049999998  1.3745896108000000  0.0000000000000000   F   F   F
  0.8098160178629764  1.3745896108000000  2.3195504606305231   F   F   F
  4.0490799921370231  1.3745896108000000  4.6391009908475169   F   F   T
  0.0000000000000000  0.0000000000000000  6.9586514514780395   F   F   T
  2.4294480049999998  1.3745896108000000  6.9586514514780395   F   F   T
