Pt  O 
 1.0000000000000000
     9.7177920199999992    0.0000000000000000    0.0000000000000000
     0.0000000000000000   11.2211396800000003    0.0000000000000000
     0.0000000000000000    0.0000000000000000   25.0000000000000000
 Pt  O  
  64   2
Selective dynamics
Cartesian
  0.0000000000000000  0.0000000000000000  0.0000000000000000   F   F   F
  3.2392640228629768  0.0000000000000000  2.2905055204283551   F   F   F
  1.6195969903236311 -0.0034190264183451  4.4815573126628179   F   F   F
  2.4294480049999998  1.4026424600000000  0.0000000000000000   F   F   F
  0.8098160178629769  1.4026424600000000  2.2905055204283551   F   F   F
  4.0689692637387438  1.4061708023653314  4.5296198056400572   F   F   F
  9.7114564176722862 11.2119580166884578  6.7689034034209730   F   F   F
  2.3937572263072764  1.3452062915360186  6.7298217610435573   F   F   F
  0.0000000000000000  2.8052849200000001  0.0000000000000000   F   F   F
  3.2392640228629768  2.8052849200000001  2.2905055204283551   F   F   F
  1.6398473366273860  2.8202199098116507  4.5155195217676871   F   F   F
  2.4294480049999998  4.2079273800000001  0.0000000000000000   F   F   F
  0.8098160178629769  4.2079273800000001  2.2905055204283551   F   F   F
  4.0685525924507937  4.2077635798794386  4.5447409447074945   F   F   F
  9.7179481160172916  2.7907337012444673  6.7640622964247594   F   F   F
  2.3765991216200488  4.2083525675090163  6.8004488593555372   F   F   F
  0.0000000000000000  5.6105698400000001  0.0000000000000000   F   F   F
  3.2392640228629768  5.6105698400000001  2.2905055204283551   F   F   F
  1.6399855786717534  5.5967373484299792  4.5163769262102402   F   F   F
  2.4294480049999998  7.0132123000000002  0.0000000000000000   F   F   F
  0.8098160178629769  7.0132123000000002  2.2905055204283551   F   F   F
  4.0694028133247935  7.0098624686033943  4.5294346358926827   F   F   F
  9.7173407477831972  5.6273402284204126  6.7643544568074701   F   F   F
  2.3944461981119383  7.0709778076508236  6.7314983730518696   F   F   F
  0.0000000000000000  8.4158547600000002  0.0000000000000000   F   F   F
  3.2392640228629768  8.4158547600000002  2.2905055204283551   F   F   F
  1.6197427376991029  8.4183574854443037  4.4816784341424301   F   F   F
  2.4294480049999998  9.8184972200000011  0.0000000000000000   F   F   F
  0.8098160178629769  9.8184972200000011  2.2905055204283551   F   F   F
  4.0438821686376070  9.8179521136779861  4.4929737496072830   F   F   F
  9.7117843185460941  8.4257279658780746  6.7683349260078778   F   F   F
  2.4196715744615593  9.8182415529638707  6.7714305260431598   F   F   F
  4.8588960099999996  0.0000000000000000  0.0000000000000000   F   F   F
  8.0981600328629764  0.0000000000000000  2.2905055204283551   F   F   F
  6.4848296376051300 11.2130634285078905  4.4978672916556706   F   F   F
  7.2883440149999998  1.4026424600000000  0.0000000000000000   F   F   F
  5.6687120278629761  1.4026424600000000  2.2905055204283551   F   F   F
  8.9171755382947371  1.4085168869396094  4.4883824462978152   F   F   F
  4.8713564191061005 11.1751106852760103  6.7661888813376150   F   F   F
  7.3340165714870773  1.3737845342114683  6.7580530995450303   F   F   F
  4.8588960099999996  2.8052849200000001  0.0000000000000000   F   F   F
  8.0981600328629764  2.8052849200000001  2.2905055204283551   F   F   F
  6.4564557306862502  2.7923180180317555  4.5381297982830002   F   F   F
  7.2883440149999998  4.2079273800000001  0.0000000000000000   F   F   F
  5.6687120278629761  4.2079273800000001  2.2905055204283551   F   F   F
  8.9093746515408210  4.2077980759971370  4.4853524909128275   F   F   F
  4.9430750951763551  2.7543010504052940  6.8317181883915099   F   F   F
  7.3538578530563399  4.2082690744299125  6.7400055700930830   F   F   F
  4.8588960099999996  5.6105698400000001  0.0000000000000000   F   F   F
  8.0981600328629764  5.6105698400000001  2.2905055204283551   F   F   F
  6.4570099626521991  5.6239655328625862  4.5385780303678551   F   F   F
  7.2883440149999998  7.0132123000000002  0.0000000000000000   F   F   F
  5.6687120278629761  7.0132123000000002  2.2905055204283551   F   F   F
  8.9164109650564196  7.0067988361002040  4.4885383291664480   F   F   F
  4.9411454169446616  5.6593504089085975  6.8292489275933770   F   F   F
  7.3334503595010458  7.0421494376192380  6.7611345532805425   F   F   F
  4.8588960099999996  8.4158547600000002  0.0000000000000000   F   F   F
  8.0981600328629764  8.4158547600000002  2.2905055204283551   F   F   F
  6.4851620339598535  8.4234256346575673  4.4991176144537546   F   F   F
  7.2883440149999998  9.8184972200000011  0.0000000000000000   F   F   F
  5.6687120278629761  9.8184972200000011  2.2905055204283551   F   F   F
  8.9121427053088311  9.8182591692954748  4.4964078178715825   F   F   F
  4.8722042658020754  8.4605053663531216  6.7678553372554449   F   F   F
  7.3083142004162154  9.8184668925363461  6.7752562212290925   F   F   F
  4.1517071704183097  3.2844753854832924  8.4698717458570645   T   T   T
  4.1514095749655615  5.1309242568595428  8.4687891556125194   T   T   T
