Pt  O 
 1.0000000000000000
     9.5234361795999991    0.0000000000000000    0.0000000000000000
     0.0000000000000000   11.2211396800000003    0.0000000000000000
     0.0000000000000000    0.0000000000000000   25.0000000000000000
 Pt  O  
  64   2
Selective dynamics
Cartesian
  0.0000000000000000  0.0000000000000000  0.0000000000000000   F   F   F
  3.1744787424057170  0.0000000000000000  2.2905055204283551   F   F   F
  1.6079957694025060 11.2182113291939132  4.5853358639374271   T   T   T
  2.3808590448999998  1.4026424600000000  0.0000000000000000   F   F   F
  0.7936196975057174  1.4026424600000000  2.2905055204283551   F   F   F
  3.9904460550635084  1.4232215846979916  4.6639541020379802   T   T   T
  0.0073669605398418 11.2095018188281550  6.9290610620694375   T   T   T
  2.3616405039072932  1.3854373651980252  6.9184983076319968   T   T   T
  0.0000000000000000  2.8052849200000001  0.0000000000000000   F   F   F
  3.1744787424057170  2.8052849200000001  2.2905055204283551   F   F   F
  1.5930915815046882  2.7934011995420285  4.5712320823833199   T   T   T
  2.3808590448999998  4.2079273800000001  0.0000000000000000   F   F   F
  0.7936196975057174  4.2079273800000001  2.2905055204283551   F   F   F
  3.9725284625615784  4.2079123268551113  4.5855177627870507   T   T   T
  9.5226893951438676  2.7803047193446533  6.9200152313072349   T   T   T
  2.3162070864187920  4.2076807760986599  6.8422403483223926   T   T   T
  0.0000000000000000  5.6105698400000001  0.0000000000000000   F   F   F
  3.1744787424057170  5.6105698400000001  2.2905055204283551   F   F   F
  1.5930276299431447  5.6223803932788545  4.5712875866692197   T   T   T
  2.3808590448999998  7.0132123000000002  0.0000000000000000   F   F   F
  0.7936196975057174  7.0132123000000002  2.2905055204283551   F   F   F
  3.9903714545364606  6.9924632221737237  4.6641130319438249   T   T   T
  9.5226140301487767  5.6351230990367407  6.9201996040365144   T   T   T
  2.3616340589544977  7.0299134073390244  6.9186842947678100   T   T   T
  0.0000000000000000  8.4158547600000002  0.0000000000000000   F   F   F
  3.1744787424057170  8.4158547600000002  2.2905055204283551   F   F   F
  1.6080085554032910  8.4185896941776477  4.5855176357699525   T   T   T
  2.3808590448999998  9.8184972200000011  0.0000000000000000   F   F   F
  0.7936196975057174  9.8184972200000011  2.2905055204283551   F   F   F
  3.9808208318309575  9.8183735708801390  4.5872162424319196   T   T   T
  0.0073135668271727  8.4270439934721715  6.9291977006939742   T   T   T
  2.3811123733362201  9.8182270783183689  6.9295216765343000   T   T   T
  4.7617180897999996  0.0000000000000000  0.0000000000000000   F   F   F
  7.9361968322057166  0.0000000000000000  2.2905055204283551   F   F   F
  6.3556571790090040 11.2165768158664996  4.5939672323212921   T   T   T
  7.1425771346999998  1.4026424600000000  0.0000000000000000   F   F   F
  5.5553377873057164  1.4026424600000000  2.2905055204283551   F   F   F
  8.7411316175199634  1.3952475107977051  4.5843602447417195   T   T   T
  4.7662274394269648 11.1956600540176741  6.9438794101356223   T   T   T
  7.1659645167314352  1.3793471052090676  6.9070575690273053   T   T   T
  4.7617180897999996  2.8052849200000001  0.0000000000000000   F   F   F
  7.9361968322057166  2.8052849200000001  2.2905055204283551   F   F   F
  6.3452417705171307  2.8010891326567626  4.6153550961757999   T   T   T
  7.1425771346999998  4.2079273800000001  0.0000000000000000   F   F   F
  5.5553377873057164  4.2079273800000001  2.2905055204283551   F   F   F
  8.7471457040027847  4.2078832565215754  4.5627420842851398   T   T   T
  4.7685463105125381  2.8010096796278647  7.0120868857231580   T   T   T
  7.2168412107396209  4.2077464164328804  6.8600498878201455   T   T   T
  4.7617180897999996  5.6105698400000001  0.0000000000000000   F   F   F
  7.9361968322057166  5.6105698400000001  2.2905055204283551   F   F   F
  6.3452201981652356  5.6145992648094749  4.6154138827282827   T   T   T
  7.1425771346999998  7.0132123000000002  0.0000000000000000   F   F   F
  5.5553377873057164  7.0132123000000002  2.2905055204283551   F   F   F
  8.7411389237312491  7.0204537524318082  4.5843716439627018   T   T   T
  4.7687228609729617  5.6141581224008812  7.0122245750980374   T   T   T
  7.1660477397351494  7.0362627054460454  6.9071845240905052   T   T   T
  4.7617180897999996  8.4158547600000002  0.0000000000000000   F   F   F
  7.9361968322057166  8.4158547600000002  2.2905055204283551   F   F   F
  6.3556793458775447  8.4201954573742217  4.5939710505604499   T   T   T
  7.1425771346999998  9.8184972200000011  0.0000000000000000   F   F   F
  5.5553377873057164  9.8184972200000011  2.2905055204283551   F   F   F
  8.7460229713344813  9.8184197430349620  4.5890149024757925   T   T   T
  4.7662680963832980  8.4407632877463765  6.9440646094152054   T   T   T
  7.1575641696651457  9.8183174804311353  6.9224270386394382   T   T   T
  4.7634010690118957  3.5223293878182136  8.8934219446836558   T   T   T
  4.7631427407520892  4.8926944817187463  8.8935068872124319   T   T   T
