Pt  O 
 1.0000000000000000
     9.9121478603999993    0.0000000000000000    0.0000000000000000
     0.0000000000000000   11.2211396800000003    0.0000000000000000
     0.0000000000000000    0.0000000000000000   25.0000000000000000
 Pt  O  
  64   2
Selective dynamics
Cartesian
  0.0000000000000000  0.0000000000000000  0.0000000000000000   F   F   F
  3.3040493033202365  0.0000000000000000  2.2905055204283551   F   F   F
  1.6695942019094685 11.2294209618300300  4.4687512067700030   T   T   T
  2.4780369650999998  1.4026424600000000  0.0000000000000000   F   F   F
  0.8260123382202365  1.4026424600000000  2.2905055204283551   F   F   F
  4.1441934574529142  1.4349556103777494  4.5114521030147738   T   T   T
 -0.0020095076989785 11.2067706060467120  6.7001141995450517   T   T   T
  2.4391411040951478  1.3265568167551449  6.7229283284830323   T   T   T
  0.0000000000000000  2.8052849200000001  0.0000000000000000   F   F   F
  3.3040493033202365  2.8052849200000001  2.2905055204283551   F   F   F
  1.6639664112909101  2.8077924255589433  4.4779857892088204   T   T   T
  2.4780369650999998  4.2079273800000001  0.0000000000000000   F   F   F
  0.8260123382202365  4.2079273800000001  2.2905055204283551   F   F   F
  4.1226631931692843  4.2079641052031587  4.5113289220495325   T   T   T
 -0.0195031604113905  2.7817019401121339  6.6932074456667099   T   T   T
  2.3399256586203490  4.2079007002576878  6.7471933941404121   T   T   T
  0.0000000000000000  5.6105698400000001  0.0000000000000000   F   F   F
  3.3040493033202365  5.6105698400000001  2.2905055204283551   F   F   F
  1.6639203413853840  5.6079639676613988  4.4779915009156994   T   T   T
  2.4780369650999998  7.0132123000000002  0.0000000000000000   F   F   F
  0.8260123382202365  7.0132123000000002  2.2905055204283551   F   F   F
  4.1442033693933062  6.9808139494822381  4.5115217858564183   T   T   T
 -0.0194928423093815  5.6340553499639068  6.6932538478006229   T   T   T
  2.4390940106270591  7.0891277970681603  6.7228980961650873   T   T   T
  0.0000000000000000  8.4158547600000002  0.0000000000000000   F   F   F
  3.3040493033202365  8.4158547600000002  2.2905055204283551   F   F   F
  1.6695229869827668  8.4074781726992640  4.4687144276952981   T   T   T
  2.4780369650999998  9.8184972200000011  0.0000000000000000   F   F   F
  0.8260123382202365  9.8184972200000011  2.2905055204283551   F   F   F
  4.1358448215293393  9.8183760370906725  4.4573652594683679   T   T   T
 -0.0019776851477609  8.4301306964784448  6.7001241152247131   T   T   T
  2.4779179888206535  9.8184354991798664  6.7020906953025987   T   T   T
  4.9560739301999996  0.0000000000000000  0.0000000000000000   F   F   F
  8.2601232335202361  0.0000000000000000  2.2905055204283551   F   F   F
  6.6150164701531420 11.2214538117445848  4.4611712292998362   T   T   T
  7.4341108952999999  1.4026424600000000  0.0000000000000000   F   F   F
  5.7820862684202359  1.4026424600000000  2.2905055204283551   F   F   F
  9.0952275622232701  1.4020096874078192  4.4520982713214643   T   T   T
  4.9835851453704842 11.1945267802838639  6.6896172329383354   T   T   T
  7.4809761518681848  1.3756069763314973  6.6965600070819526   T   T   T
  4.9560739301999996  2.8052849200000001  0.0000000000000000   F   F   F
  8.2601232335202361  2.8052849200000001  2.2905055204283551   F   F   F
  6.5954182661649332  2.8062209584773896  4.4924027935694069   T   T   T
  7.4341108952999999  4.2079273800000001  0.0000000000000000   F   F   F
  5.7820862684202359  4.2079273800000001  2.2905055204283551   F   F   F
  9.0953846654752386  4.2079101268358290  4.4464095402725707   T   T   T
  5.0563659836824355  2.7931383730713777  6.7767445589404920   T   T   T
  7.5252397434832039  4.2079546531582182  6.6808552007240145   T   T   T
  4.9560739301999996  5.6105698400000001  0.0000000000000000   F   F   F
  8.2601232335202361  5.6105698400000001  2.2905055204283551   F   F   F
  6.5954025388191617  5.6095955740619914  4.4923897783770208   T   T   T
  7.4341108952999999  7.0132123000000002  0.0000000000000000   F   F   F
  5.7820862684202359  7.0132123000000002  2.2905055204283551   F   F   F
  9.0951615182716417  7.0137741034465080  4.4521144227069254   T   T   T
  5.0562719250956993  5.6224794345565448  6.7769048011236919   T   T   T
  7.4809636394965064  7.0402059945569615  6.6966345215322960   T   T   T
  4.9560739301999996  8.4158547600000002  0.0000000000000000   F   F   F
  8.2601232335202361  8.4158547600000002  2.2905055204283551   F   F   F
  6.6150505597165203  8.4154784181091618  4.4611366761692812   T   T   T
  7.4341108952999999  9.8184972200000011  0.0000000000000000   F   F   F
  5.7820862684202359  9.8184972200000011  2.2905055204283551   F   F   F
  9.1060225431660307  9.8184657944708444  4.4528851048575895   T   T   T
  4.9838172383734261  8.4421927983368157  6.6896293462399985   T   T   T
  7.4595345554162691  9.8184810209044215  6.6943226968880900   T   T   T
  4.1742549293905657  3.1181323718708178  8.2262619901980898   T   T   T
  4.1741083191212169  5.2973181794299462  8.2263108171282529   T   T   T
