Pt  O 
 1.0000000000000000
     9.7177920199999992    0.0000000000000000    0.0000000000000000
     0.0000000000000000   10.9967168863999998    0.0000000000000000
     0.0000000000000000    0.0000000000000000   25.0000000000000000
 Pt  O  
  64   2
Selective dynamics
Cartesian
  0.0000000000000000  0.0000000000000000  0.0000000000000000   F   F   F
  3.2392640228629768  0.0000000000000000  2.2905055204283551   F   F   F
  1.6098403078693890 10.9923789833225598  4.4816636033816701   T   T   T
  2.4294480049999998  1.3745896108000000  0.0000000000000000   F   F   F
  0.8098160178629769  1.3745896108000000  2.2905055204283551   F   F   F
  4.0500903841093461  1.3790619980487759  4.5133528736990050   T   T   T
  9.7009057285386717 10.9931543482855183  6.7737979827505495   T   T   T
  2.3806743623319861  1.3073522248325828  6.7305665446383500   T   T   T
  0.0000000000000000  2.7491792215999999  0.0000000000000000   F   F   F
  3.2392640228629768  2.7491792215999999  2.2905055204283551   F   F   F
  1.6240686137392335  2.7518746568117276  4.5114564596813622   T   T   T
  2.4294480049999998  4.1237688323999997  0.0000000000000000   F   F   F
  0.8098160178629769  4.1237688323999997  2.2905055204283551   F   F   F
  4.0620159423457292  4.1368849694299312  4.5412129608765275   T   T   T
  9.7036892973621249  2.7216773723955874  6.7669970987429551   T   T   T
  2.4077028978918174  4.1469896334389569  6.8294504402951244   T   T   T
  0.0000000000000000  5.4983584431999999  0.0000000000000000   F   F   F
  3.2392640228629768  5.4983584431999999  2.2905055204283551   F   F   F
  1.6491909636510360  5.4607010832352598  4.5407605559200102   T   T   T
  2.4294480049999998  6.8729480540000001  0.0000000000000000   F   F   F
  0.8098160178629769  6.8729480540000001  2.2905055204283551   F   F   F
  4.0790150988950096  6.8764617765428842  4.5328177659438751   T   T   T
  0.0150331882853043  5.5029887352825835  6.7629187365490395   T   T   T
  2.4109792426169925  6.9193732674677300  6.7362851493738773   T   T   T
  0.0000000000000000  8.2475376647999994  0.0000000000000000   F   F   F
  3.2392640228629768  8.2475376647999994  2.2905055204283551   F   F   F
  1.6247836677187131  8.2438871545315831  4.4804319042615495   T   T   T
  2.4294480049999998  9.6221272756000005  0.0000000000000000   F   F   F
  0.8098160178629769  9.6221272756000005  2.2905055204283551   F   F   F
  4.0412495479368395  9.6285038204664097  4.4892242861003249   T   T   T
  0.0059632956910279  8.2634249483605231  6.7662528235191015   T   T   T
  2.4166502627254616  9.6225025848197685  6.7658640272878046   T   T   T
  4.8588960099999996  0.0000000000000000  0.0000000000000000   F   F   F
  8.0981600328629764  0.0000000000000000  2.2905055204283551   F   F   F
  6.4788765969542643 10.9953835077930204  4.4984292551129448   T   T   T
  7.2883440149999998  1.3745896108000000  0.0000000000000000   F   F   F
  5.6687120278629761  1.3745896108000000  2.2905055204283551   F   F   F
  8.9007540742907505  1.3751474758602045  4.4951952987187127   T   T   T
  4.8633383077355505 10.9834775955826718  6.7636879932980083   T   T   T
  7.2973100288445165  1.3602327767331994  6.7725280218933648   T   T   T
  4.8588960099999996  2.7491792215999999  0.0000000000000000   F   F   F
  8.0981600328629764  2.7491792215999999  2.2905055204283551   F   F   F
  6.4457054204379993  2.7423663262758642  4.5412327408225650   T   T   T
  7.2883440149999998  4.1237688323999997  0.0000000000000000   F   F   F
  5.6687120278629761  4.1237688323999997  2.2905055204283551   F   F   F
  8.9141746321617656  4.1171129669706801  4.4873323158785903   T   T   T
  4.9080876531716386  2.7317399634076223  6.8230178212081327   T   T   T
  7.3523180209012189  4.1224377817513167  6.7388696199440545   T   T   T
  4.8588960099999996  5.4983584431999999  0.0000000000000000   F   F   F
  8.0981600328629764  5.4983584431999999  2.2905055204283551   F   F   F
  6.4816960275674447  5.5141322359662484  4.5293069263518495   T   T   T
  7.2883440149999998  6.8729480540000001  0.0000000000000000   F   F   F
  5.6687120278629761  6.8729480540000001  2.2905055204283551   F   F   F
  8.9367895623290874  6.8636054523646530  4.4888837321101596   T   T   T
  4.9466914677980078  5.6220642550044460  6.8045505437295244   T   T   T
  7.3679639024564914  6.9148102284845265  6.7577464247468892   T   T   T
  4.8588960099999996  8.2475376647999994  0.0000000000000000   F   F   F
  8.0981600328629764  8.2475376647999994  2.2905055204283551   F   F   F
  6.4938031833771017  8.2576904120192562  4.5004807126895576   T   T   T
  7.2883440149999998  9.6221272756000005  0.0000000000000000   F   F   F
  5.6687120278629761  9.6221272756000005  2.2905055204283551   F   F   F
  8.9127902792314355  9.6221771495745561  4.4972281289501472   T   T   T
  4.8713375172258493  8.3235201366116538  6.7639355032817150   T   T   T
  7.3065083283401080  9.6343599651199643  6.7742648550035884   T   T   T
  4.6117081686069730  5.0561006306783529  8.6036669610209042   T   T   T
  3.7172839499327228  3.5422313249272759  8.2829794431995651   T   T   T
  ! Dimer Axis Block
0 0 0
0 0 0
0 0 0
0 0 0
0 0 0
0 0 0
0 0 0
0 0 0
0 0 0
0 0 0
0 0 0
0 0 0
0 0 0
0 0 0
0 0 0
0 0 0
0 0 0
0 0 0
0 0 0
0 0 0
0 0 0
0 0 0
0 0 0
0 0 0
0 0 0
0 0 0
0 0 0
0 0 0
0 0 0
0 0 0
0 0 0
0 0 0
0 0 0
0 0 0
0 0 0
0 0 0
0 0 0
0 0 0
0 0 0
0 0 0
0 0 0
0 0 0
0 0 0
0 0 0
0 0 0
0 0 0
0 0 0
0 0 0
0 0 0
0 0 0
0 0 0
0 0 0
0 0 0
0 0 0
0 0 0
0 0 0
0 0 0
0 0 0
0 0 0
0 0 0
0 0 0
0 0 0
0 0 0
0 0 0
-0.085574 -0.143169 0.031918
0.079478 0.144442 0.080504
