Pt  O 
 1.0000000000000000
     9.7177920199999992    0.0000000000000000    0.0000000000000000
     0.0000000000000000   11.4455624736000008    0.0000000000000000
     0.0000000000000000    0.0000000000000000   25.0000000000000000
 Pt  O  
  64   2
Selective dynamics
Cartesian
  0.0000000000000000  0.0000000000000000  0.0000000000000000   F   F   F
  3.2392640228629763  0.0000000000000000  2.2905055204283551   F   F   F
  1.6343349288093278 -0.0030947042754898  4.5245179779042655   T   T   T
  2.4294480049999994  1.4306953092000001  0.0000000000000000   F   F   F
  0.8098160178629767  1.4306953092000001  2.2905055204283551   F   F   F
  4.0732812155666842  1.4622021701538177  4.5245179779042655   T   T   T
  0.0096320640649890 -0.0138732510349140  6.7867769329225345   T   T   T
  2.4089358408088128  1.4157832922010218  6.7867769329225345   T   T   T
  0.0000000000000000  2.8613906184000002  0.0000000000000000   F   F   F
  3.2392640228629763  2.8613906184000002  2.2905055204283551   F   F   F
  1.6213822423422621  2.8509184304381967  4.5245179779042655   T   T   T
  2.4294480049999994  4.2920859276000005  0.0000000000000000   F   F   F
  0.8098160178629767  4.2920859276000005  2.2905055204283551   F   F   F
  4.0474575174683514  4.2919499447332639  4.5245179779042655   T   T   T
 -0.0003400472268539  2.8362529459292722  6.7867769329225345   T   T   T
  2.3510773460011642  4.2919738036223603  6.7867769329225345   T   T   T
  0.0000000000000000  5.7227812368000004  0.0000000000000000   F   F   F
  3.2392640228629763  5.7227812368000004  2.2905055204283551   F   F   F
  1.6214545483086094  5.7331458389480394  4.5245179779042655   T   T   T
  2.4294480049999994  7.1534765460000003  0.0000000000000000   F   F   F
  0.8098160178629767  7.1534765460000003  2.2905055204283551   F   F   F
  4.0732466737472857  7.1217661113600856  4.5245179779042655   T   T   T
 -0.0004543373553524  5.7476088701347985  6.7867769329225345   T   T   T
  2.4088627143508670  7.1679940498464116  6.7867769329225345   T   T   T
  0.0000000000000000  8.5841718552000010  0.0000000000000000   F   F   F
  3.2392640228629763  8.5841718552000010  2.2905055204283551   F   F   F
  1.6343372631297812  8.5871649863761004  4.5245179779042655   T   T   T
  2.4294480049999994 10.0148671644000018  0.0000000000000000   F   F   F
  0.8098160178629767 10.0148671644000018  2.2905055204283551   F   F   F
  4.0570291619547643 10.0147839171089288  4.5245179779042655   T   T   T
  0.0096080214251546  8.5978622585617082  6.7867769329225345   T   T   T
  2.4340292980495128 10.0147668275802140  6.7867769329225345   T   T   T
  4.8588960099999987  0.0000000000000000  0.0000000000000000   F   F   F
  8.0981600328629746  0.0000000000000000  2.2905055204283551   F   F   F
  6.4797924463927448 -0.0012754052572783  4.5245179779042655   T   T   T
  7.2883440149999990  1.4306953092000001  0.0000000000000000   F   F   F
  5.6687120278629752  1.4306953092000001  2.2905055204283551   F   F   F
  8.9141543397519012  1.4255663607590952  4.5245179779042655   T   T   T
  4.8631560278959114 -0.0277372005798833  6.7867769329225345   T   T   T
  7.3160100839675763  1.4101091191706123  6.7867769329225345   T   T   T
  4.8588960099999987  2.8613906184000002  0.0000000000000000   F   F   F
  8.0981600328629746  2.8613906184000002  2.2905055204283551   F   F   F
  6.4657535235760557  2.8618686925015471  4.5245179779042655   T   T   T
  7.2883440149999990  4.2920859276000005  0.0000000000000000   F   F   F
  5.6687120278629752  4.2920859276000005  2.2905055204283551   F   F   F
  8.9207683699716007  4.2920583054388617  4.5245179779042655   T   T   T
  4.8646537506777534  2.8514175651647102  6.7867769329225345   T   T   T
  7.3761296733285535  4.2920207459262745  6.7867769329225345   T   T   T
  4.8588960099999987  5.7227812368000004  0.0000000000000000   F   F   F
  8.0981600328629746  5.7227812368000004  2.2905055204283551   F   F   F
  6.4656520308452468  5.7221130752952707  4.5245179779042655   T   T   T
  7.2883440149999990  7.1534765460000003  0.0000000000000000   F   F   F
  5.6687120278629752  7.1534765460000003  2.2905055204283551   F   F   F
  8.9140823381885070  7.1584456966113965  4.5245179779042655   T   T   T
  4.8645346533389482  5.7322271267189953  6.7867769329225345   T   T   T
  7.3158964931738133  7.1737841898125803  6.7867769329225345   T   T   T
  4.8588960099999987  8.5841718552000010  0.0000000000000000   F   F   F
  8.0981600328629746  8.5841718552000010  2.2905055204283551   F   F   F
  6.4797160868101704  8.5854768302533966  4.5245179779042655   T   T   T
  7.2883440149999990 10.0148671644000018  0.0000000000000000   F   F   F
  5.6687120278629752 10.0148671644000018  2.2905055204283551   F   F   F
  8.9170864076166954 10.0147736556774536  4.5245179779042655   T   T   T
  4.8630250722812738  8.6114891017406272  6.7867769329225345   T   T   T
  7.3029291467073527 10.0146805592184460  6.7867769329225345   T   T   T
  4.8653843096787277  3.5914925169044083  8.7226877243450822   T   T   T
  4.8650758243713019  4.9919478363725407  8.7228134461276152   T   T   T
