Pt  O 
 1.0000000000000000
     9.7177920199999992    0.0000000000000000    0.0000000000000000
     0.0000000000000000   11.2211396800000003    0.0000000000000000
     0.0000000000000000    0.0000000000000000   25.0000000000000000
 Pt  O  
  64   2
Selective dynamics
Cartesian
  0.0000000000000000  0.0000000000000000  0.0000000000000000   F   F   F
  3.2392640228629768  0.0000000000000000  2.2905055204283551   F   F   F
  1.6112673808296287 -0.0128734782173459  4.4724649673933072   F   F   F
  2.4294480049999998  1.4026424600000000  0.0000000000000000   F   F   F
  0.8098160178629769  1.4026424600000000  2.2905055204283551   F   F   F
  4.0532085536488589  1.4068827470615646  4.5175834144898275   F   F   F
  9.6962438853191291 11.2120923811853288  6.7641653687515593   F   F   F
  2.3701164174477110  1.3221346880549174  6.7155685655212780   F   F   F
  0.0000000000000000  2.8052849200000001  0.0000000000000000   F   F   F
  3.2392640228629768  2.8052849200000001  2.2905055204283551   F   F   F
  1.6249035626008097  2.8138806641291643  4.5139933928233500   F   F   F
  2.4294480049999998  4.2079273800000001  0.0000000000000000   F   F   F
  0.8098160178629769  4.2079273800000001  2.2905055204283551   F   F   F
  4.0542207516868194  4.2192920016311373  4.5633983028732175   F   F   F
  9.7022778406766417  2.7785555856632849  6.7647204359818591   F   F   F
  2.4229055964619870  4.1941670676940044  6.8863208909993672   F   F   F
  0.0000000000000000  5.6105698400000001  0.0000000000000000   F   F   F
  3.2392640228629768  5.6105698400000001  2.2905055204283551   F   F   F
  1.6461160705776336  5.5626340452371181  4.5565347971771146   F   F   F
  2.4294480049999998  7.0132123000000002  0.0000000000000000   F   F   F
  0.8098160178629769  7.0132123000000002  2.2905055204283551   F   F   F
  4.0691632775692979  7.0028380777256336  4.5460486855662650   F   F   F
  9.7298692483405365  5.6040741969837811  6.7698055236171024   F   F   F
  2.3935529388934080  7.0462065782989116  6.7520016301901506   F   F   F
  0.0000000000000000  8.4158547600000002  0.0000000000000000   F   F   F
  3.2392640228629768  8.4158547600000002  2.2905055204283551   F   F   F
  1.6220858903906596  8.4003820907977200  4.4857023010130446   F   F   F
  2.4294480049999998  9.8184972200000011  0.0000000000000000   F   F   F
  0.8098160178629769  9.8184972200000011  2.2905055204283551   F   F   F
  4.0387609931821968  9.8133558734201696  4.4904060887977275   F   F   F
  9.7096079403365962  8.4264056714758429  6.7640711761697299   F   F   F
  2.4123417640891343  9.8091937052919231  6.7671488025441251   F   F   F
  4.8588960099999996  0.0000000000000000  0.0000000000000000   F   F   F
  8.0981600328629764  0.0000000000000000  2.2905055204283551   F   F   F
  6.4764189692291456 11.2175233318160075  4.4953218742691075   F   F   F
  7.2883440149999998  1.4026424600000000  0.0000000000000000   F   F   F
  5.6687120278629761  1.4026424600000000  2.2905055204283551   F   F   F
  8.9001185604862911  1.4057183971628733  4.4943387192440225   F   F   F
  4.8552990060681296 11.1926437396838558  6.7618445938471492   F   F   F
  7.2884665726354498  1.3846597922883346  6.7650133180160648   F   F   F
  4.8588960099999996  2.8052849200000001  0.0000000000000000   F   F   F
  8.0981600328629764  2.8052849200000001  2.2905055204283551   F   F   F
  6.4344957259680884  2.8020754570016346  4.5482947258447570   F   F   F
  7.2883440149999998  4.2079273800000001  0.0000000000000000   F   F   F
  5.6687120278629761  4.2079273800000001  2.2905055204283551   F   F   F
  8.9027317071575673  4.2028927029098275  4.4884379883728149   F   F   F
  4.8952975052268268  2.7674325281869860  6.8565739601193680   F   F   F
  7.3439309786584266  4.2001241900733639  6.7469518950676193   F   F   F
  4.8588960099999996  5.6105698400000001  0.0000000000000000   F   F   F
  8.0981600328629764  5.6105698400000001  2.2905055204283551   F   F   F
  6.4668032397411013  5.6199892367637538  4.5381804396118977   F   F   F
  7.2883440149999998  7.0132123000000002  0.0000000000000000   F   F   F
  5.6687120278629761  7.0132123000000002  2.2905055204283551   F   F   F
  8.9283769614192696  6.9997202083098928  4.4910564057273872   F   F   F
  4.9376383615464530  5.7400910596592967  6.8372325399011977   F   F   F
  7.3542183829053656  7.0503051100640990  6.7599487674482459   F   F   F
  4.8588960099999996  8.4158547600000002  0.0000000000000000   F   F   F
  8.0981600328629764  8.4158547600000002  2.2905055204283551   F   F   F
  6.4832258126515230  8.4186648049334618  4.5005208916856452   F   F   F
  7.2883440149999998  9.8184972200000011  0.0000000000000000   F   F   F
  5.6687120278629761  9.8184972200000011  2.2905055204283551   F   F   F
  8.9089173629232281  9.8151502414817120  4.4934833495059774   F   F   F
  4.8586440915331570  8.4827442436239089  6.7737833186548677   F   F   F
  7.2978173099611459  9.8266670067428912  6.7677384687734277   F   F   F
  4.6582930195293750  5.2025816508567475  8.6119114446336891   T   T   T
  3.7716389552562966  3.5890345953323854  8.3149940081571145   T   T   T
