Pt  O 
 1.0000000000000000
     9.7177920199999992    0.0000000000000000    0.0000000000000000
     0.0000000000000000   11.2211396800000003    0.0000000000000000
     0.0000000000000000    0.0000000000000000   25.0000000000000000
 Pt  O  
  64   2
Selective dynamics
Cartesian
  0.0000000000000000  0.0000000000000000  0.0000000000000000   F   F   F
  3.2392640228629763  0.0000000000000000  2.2905055204283551   F   F   F
  1.6196319871370233  0.0000000000000000  4.5599913267400574   T   T   T
  2.4294480049999998  1.4026424600000000  0.0000000000000000   F   F   F
  0.8098160178629764  1.4026424600000000  2.2905055204283551   F   F   F
  4.0490799921370231  1.4026424600000000  4.5599913267400574   T   T   T
  0.0000000000000000  0.0000000000000000  6.8635934428831478   T   T   T
  2.4294480049999998  1.4026424600000000  6.8635934428831478   T   T   T
  0.0000000000000000  2.8052849200000001  0.0000000000000000   F   F   F
  3.2392640228629763  2.8052849200000001  2.2905055204283551   F   F   F
  1.6196319871370233  2.8052849200000001  4.5599913267400574   T   T   T
  2.4294480049999998  4.2079273800000001  0.0000000000000000   F   F   F
  0.8098160178629764  4.2079273800000001  2.2905055204283551   F   F   F
  4.0490799921370231  4.2079273800000001  4.5599913267400574   T   T   T
  0.0000000000000000  2.8052849200000001  6.8635934428831478   T   T   T
  2.4294480049999998  4.2079273800000001  6.8635934428831478   T   T   T
  0.0000000000000000  5.6105698400000001  0.0000000000000000   F   F   F
  3.2392640228629763  5.6105698400000001  2.2905055204283551   F   F   F
  1.6196319871370233  5.6105698400000001  4.5599913267400574   T   T   T
  2.4294480049999998  7.0132123000000002  0.0000000000000000   F   F   F
  0.8098160178629764  7.0132123000000002  2.2905055204283551   F   F   F
  4.0490799921370231  7.0132123000000002  4.5599913267400574   T   T   T
  0.0000000000000000  5.6105698400000001  6.8635934428831478   T   T   T
  2.4294480049999998  7.0132123000000002  6.8635934428831478   T   T   T
  0.0000000000000000  8.4158547600000002  0.0000000000000000   F   F   F
  3.2392640228629763  8.4158547600000002  2.2905055204283551   F   F   F
  1.6196319871370233  8.4158547600000002  4.5599913267400574   T   T   T
  2.4294480049999998  9.8184972200000011  0.0000000000000000   F   F   F
  0.8098160178629764  9.8184972200000011  2.2905055204283551   F   F   F
  4.0490799921370231  9.8184972200000011  4.5599913267400574   T   T   T
  0.0000000000000000  8.4158547600000002  6.8635934428831478   T   T   T
  2.4294480049999998  9.8184972200000011  6.8635934428831478   T   T   T
  4.8588960099999996  0.0000000000000000  0.0000000000000000   F   F   F
  8.0981600328629764  0.0000000000000000  2.2905055204283551   F   F   F
  6.4785279971370233  0.0000000000000000  4.5599913267400574   T   T   T
  7.2883440149999998  1.4026424600000000  0.0000000000000000   F   F   F
  5.6687120278629761  1.4026424600000000  2.2905055204283551   F   F   F
  8.9079760021370227  1.4026424600000000  4.5599913267400574   T   T   T
  4.8588960099999996  0.0000000000000000  6.8635934428831478   T   T   T
  7.2883440149999998  1.4026424600000000  6.8635934428831478   T   T   T
  4.8588960099999996  2.8052849200000001  0.0000000000000000   F   F   F
  8.0981600328629764  2.8052849200000001  2.2905055204283551   F   F   F
  6.4785279971370233  2.8052849200000001  4.5599913267400574   T   T   T
  7.2883440149999998  4.2079273800000001  0.0000000000000000   F   F   F
  5.6687120278629761  4.2079273800000001  2.2905055204283551   F   F   F
  8.9079760021370227  4.2079273800000001  4.5599913267400574   T   T   T
  4.8588960099999996  2.8052849200000001  6.8635934428831478   T   T   T
  7.2883440149999998  4.2079273800000001  6.8635934428831478   T   T   T
  4.8588960099999996  5.6105698400000001  0.0000000000000000   F   F   F
  8.0981600328629764  5.6105698400000001  2.2905055204283551   F   F   F
  6.4785279971370233  5.6105698400000001  4.5599913267400574   T   T   T
  7.2883440149999998  7.0132123000000002  0.0000000000000000   F   F   F
  5.6687120278629761  7.0132123000000002  2.2905055204283551   F   F   F
  8.9079760021370227  7.0132123000000002  4.5599913267400574   T   T   T
  4.8588960099999996  5.6105698400000001  6.8635934428831478   T   T   T
  7.2883440149999998  7.0132123000000002  6.8635934428831478   T   T   T
  4.8588960099999996  8.4158547600000002  0.0000000000000000   F   F   F
  8.0981600328629764  8.4158547600000002  2.2905055204283551   F   F   F
  6.4785279971370233  8.4158547600000002  4.5599913267400574   T   T   T
  7.2883440149999998  9.8184972200000011  0.0000000000000000   F   F   F
  5.6687120278629761  9.8184972200000011  2.2905055204283551   F   F   F
  8.9079760021370227  9.8184972200000011  4.5599913267400574   T   T   T
  4.8588960099999996  8.4158547600000002  6.8635934428831478   T   T   T
  7.2883440149999998  9.8184972200000011  6.8635934428831478   T   T   T
  3.2392640228629763  2.8052849200000001  8.0635934428831479   T   T   T
  3.2392640228629763  5.6105698400000001  8.0635934428831479   T   T   T
