Pt  O 
 1.0000000000000000
     9.5234361795999991    0.0000000000000000    0.0000000000000000
     0.0000000000000000   11.2211396800000003    0.0000000000000000
     0.0000000000000000    0.0000000000000000   25.0000000000000000
 Pt  O  
  64   2
Selective dynamics
Cartesian
  0.0000000000000000  0.0000000000000000  0.0000000000000000   F   F   F
  3.1744787424057170  0.0000000000000000  2.2905055204283551   F   F   F
  1.5974785280576098  0.0234601225886416  4.5245179779042655   T   T   T
  2.3808590448999993  1.4026424600000000  0.0000000000000000   F   F   F
  0.7936196975057173  1.4026424600000000  2.2905055204283551   F   F   F
  3.9662012793705324  1.4194189799095445  4.5245179779042655   T   T   T
 -0.0366087933146034 -0.0200510571472678  6.7867769329225345   T   T   T
  2.3151502173762863  1.2628573096309650  6.7867769329225345   T   T   T
  0.0000000000000000  2.8052849200000001  0.0000000000000000   F   F   F
  3.1744787424057170  2.8052849200000001  2.2905055204283551   F   F   F
  1.6068200427879378  2.8264992710365893  4.5245179779042655   T   T   T
  2.3808590448999993  4.2079273800000001  0.0000000000000000   F   F   F
  0.7936196975057173  4.2079273800000001  2.2905055204283551   F   F   F
  3.9635523572316980  4.2079273800000001  4.5245179779042655   T   T   T
 -0.0547254835948698  2.7760472861242715  6.7867769329225345   T   T   T
  2.2220789989220653  4.2079273800000001  6.7867769329225345   T   T   T
  0.0000000000000000  5.6105698400000001  0.0000000000000000   F   F   F
  3.1744787424057170  5.6105698400000001  2.2905055204283551   F   F   F
  1.6068200427879378  5.5893554889634105  4.5245179779042655   T   T   T
  2.3808590448999993  7.0132123000000002  0.0000000000000000   F   F   F
  0.7936196975057173  7.0132123000000002  2.2905055204283551   F   F   F
  3.9662012793705324  6.9964357800904589  4.5245179779042655   T   T   T
 -0.0547254835948698  5.6398074738757229  6.7867769329225345   T   T   T
  2.3151502173762863  7.1529974503690301  6.7867769329225345   T   T   T
  0.0000000000000000  8.4158547600000002  0.0000000000000000   F   F   F
  3.1744787424057170  8.4158547600000002  2.2905055204283551   F   F   F
  1.5974785280576098  8.3923946374113498  4.5245179779042655   T   T   T
  2.3808590448999993  9.8184972200000011  0.0000000000000000   F   F   F
  0.7936196975057173  9.8184972200000011  2.2905055204283551   F   F   F
  3.9620198973996317  9.8184972200000011  4.5245179779042655   T   T   T
 -0.0366087933146034  8.4359058171472707  6.7867769329225345   T   T   T
  2.3578726460608146  9.8184972200000011  6.7867769329225345   T   T   T
  4.7617180897999987  0.0000000000000000  0.0000000000000000   F   F   F
  7.9361968322057157  0.0000000000000000  2.2905055204283551   F   F   F
  6.3506221811874388 -0.0003109299951490  4.5245179779042655   T   T   T
  7.1425771346999989  1.4026424600000000  0.0000000000000000   F   F   F
  5.5553377873057155  1.4026424600000000  2.2905055204283551   F   F   F
  8.7322672445321512  1.4063486139944730  4.5245179779042655   T   T   T
  4.7903087096007289 -0.0311170185895512  6.7867769329225345   T   T   T
  7.1694485707155389  1.3621402650509824  6.7867769329225345   T   T   T
  4.7617180897999987  2.8052849200000001  0.0000000000000000   F   F   F
  7.9361968322057157  2.8052849200000001  2.2905055204283551   F   F   F
  6.3307535633516530  2.8037701015327783  4.5245179779042655   T   T   T
  7.1425771346999989  4.2079273800000001  0.0000000000000000   F   F   F
  5.5553377873057155  4.2079273800000001  2.2905055204283551   F   F   F
  8.7248283989433997  4.2079273800000001  4.5245179779042655   T   T   T
  4.9026936421877627  2.7846429893871525  6.7867769329225345   T   T   T
  7.1893545326666963  4.2079273800000001  6.7867769329225345   T   T   T
  4.7617180897999987  5.6105698400000001  0.0000000000000000   F   F   F
  7.9361968322057157  5.6105698400000001  2.2905055204283551   F   F   F
  6.3307535633516530  5.6120846584672357  4.5245179779042655   T   T   T
  7.1425771346999989  7.0132123000000002  0.0000000000000000   F   F   F
  5.5553377873057155  7.0132123000000002  2.2905055204283551   F   F   F
  8.7322672445321512  7.0095061460055259  4.5245179779042655   T   T   T
  4.9026936421877627  5.6312117706128451  6.7867769329225345   T   T   T
  7.1694485707155389  7.0537144949490083  6.7867769329225345   T   T   T
  4.7617180897999987  8.4158547600000002  0.0000000000000000   F   F   F
  7.9361968322057157  8.4158547600000002  2.2905055204283551   F   F   F
  6.3506221811874388  8.4161656899951538  4.5245179779042655   T   T   T
  7.1425771346999989  9.8184972200000011  0.0000000000000000   F   F   F
  5.5553377873057155  9.8184972200000011  2.2905055204283551   F   F   F
  8.7478898460457515  9.8184972200000011  4.5245179779042655   T   T   T
  4.7903087096007289  8.4469717785895515  6.7867769329225345   T   T   T
  7.1566480631644493  9.8184972200000011  6.7867769329225345   T   T   T
  3.2115236402095970  2.7081051771550015  7.9062229023013897   T   T   T
  3.2115236402095970  5.7077495828450004  7.9062229023013897   T   T   T
