Pt  O 
 1.0000000000000000
     9.7177920199999992    0.0000000000000000    0.0000000000000000
     0.0000000000000000   11.2211396800000003    0.0000000000000000
     0.0000000000000000    0.0000000000000000   25.0000000000000000
 Pt  O  
  64   2
Selective dynamics
Cartesian
  0.0000000000000000  0.0000000000000000  0.0000000000000000   F   F   F
  3.2392640228629768  0.0000000000000000  2.2905055204283551   F   F   F
  1.6343349288093281 -0.0030340237994998  4.4905443801036897   T   T   T
  2.4294480049999998  1.4026424600000000  0.0000000000000000   F   F   F
  0.8098160178629769  1.4026424600000000  2.2905055204283551   F   F   F
  4.0732812155666851  1.4335315393664880  4.5606508052757153   T   T   T
  0.0096320640649890 -0.0136012265048176  6.7614530872092198   T   T   T
  2.4089358408088133  1.3880228354911979  6.7539968727593882   T   T   T
  0.0000000000000000  2.8052849200000001  0.0000000000000000   F   F   F
  3.2392640228629768  2.8052849200000001  2.2905055204283551   F   F   F
  1.6213822423422624  2.7950180690570554  4.4830787378814652   T   T   T
  2.4294480049999998  4.2079273800000001  0.0000000000000000   F   F   F
  0.8098160178629769  4.2079273800000001  2.2905055204283551   F   F   F
  4.0474575174683523  4.2077940634639841  4.5064197153704146   T   T   T
 -0.0003400472268539  2.7806401430679140  6.7601013504316647   T   T   T
  2.3510773460011647  4.2078174545317255  6.7040494696340627   T   T   T
  0.0000000000000000  5.6105698400000001  0.0000000000000000   F   F   F
  3.2392640228629768  5.6105698400000001  2.2905055204283551   F   F   F
  1.6214545483086096  5.6207312146549402  4.4830892624325731   T   T   T
  2.4294480049999998  7.0132123000000002  0.0000000000000000   F   F   F
  0.8098160178629769  7.0132123000000002  2.2905055204283551   F   F   F
  4.0732466737472866  6.9821236385883187  4.5607216860977573   T   T   T
 -0.0004543373553524  5.6349106569949008  6.7601385812755028   T   T   T
  2.4088627143508674  7.0274451469082466  6.7540884935173908   T   T   T
  0.0000000000000000  8.4158547600000002  0.0000000000000000   F   F   F
  3.2392640228629768  8.4158547600000002  2.2905055204283551   F   F   F
  1.6343372631297814  8.4187892023295099  4.4905855934307350   T   T   T
  2.4294480049999998  9.8184972200000011  0.0000000000000000   F   F   F
  0.8098160178629769  9.8184972200000011  2.2905055204283551   F   F   F
  4.0570291619547652  9.8184156050087541  4.4911240084688702   T   T   T
  0.0096080214251546  8.4292767240801059  6.7614137372696348   T   T   T
  2.4340292980495133  9.8183988505688369  6.7669427579725117   T   T   T
  4.8588960099999996  0.0000000000000000  0.0000000000000000   F   F   F
  8.0981600328629764  0.0000000000000000  2.2905055204283551   F   F   F
  6.4797924463927457 -0.0012503973110572  4.4985755109616550   T   T   T
  7.2883440149999998  1.4026424600000000  0.0000000000000000   F   F   F
  5.6687120278629761  1.4026424600000000  2.2905055204283551   F   F   F
  8.9141543397519030  1.3976140791755836  4.4900327927337429   T   T   T
  4.8631560278959123 -0.0271933339018464  6.7722322035331155   T   T   T
  7.3160100839675772  1.3824599207555022  6.7500640267040950   T   T   T
  4.8588960099999996  2.8052849200000001  0.0000000000000000   F   F   F
  8.0981600328629764  2.8052849200000001  2.2905055204283551   F   F   F
  6.4657535235760566  2.8057536200995559  4.5279251397651379   T   T   T
  7.2883440149999998  4.2079273800000001  0.0000000000000000   F   F   F
  5.6687120278629761  4.2079273800000001  2.2905055204283551   F   F   F
  8.9207683699716025  4.2079002994498644  4.4798305776892473   T   T   T
  4.8646537506777543  2.7955074168281473  6.8442405296438098   T   T   T
  7.3761296733285544  4.2078634763983080  6.7199039128865792   T   T   T
  4.8588960099999996  5.6105698400000001  0.0000000000000000   F   F   F
  8.0981600328629764  5.6105698400000001  2.2905055204283551   F   F   F
  6.4656520308452476  5.6099147797012456  4.5279823082366901   T   T   T
  7.2883440149999998  7.0132123000000002  0.0000000000000000   F   F   F
  5.6687120278629761  7.0132123000000002  2.2905055204283551   F   F   F
  8.9140823381885088  7.0180840162856830  4.4900541994860301   T   T   T
  4.8645346533389491  5.6198305163911719  6.8444472706976223   T   T   T
  7.3158964931738142  7.0331217547182154  6.7500332939420895   T   T   T
  4.8588960099999996  8.4158547600000002  0.0000000000000000   F   F   F
  8.0981600328629764  8.4158547600000002  2.2905055204283551   F   F   F
  6.4797160868101713  8.4171341473072516  4.4985363394692275   T   T   T
  7.2883440149999998  9.8184972200000011  0.0000000000000000   F   F   F
  5.6687120278629761  9.8184972200000011  2.2905055204283551   F   F   F
  8.9170864076166971  9.8184055447818164  4.4919038462749921   T   T   T
  4.8630250722812747  8.4426363742555175  6.7723162547720968   T   T   T
  7.3029291467073536  9.8183142737435745  6.7568887488902174   T   T   T
  4.8653843096787286  3.5210710950043218  8.7226877243450822   T   T   T
  4.8650758243713028  4.8940665062475892  8.7228134461276152   T   T   T
