Pt                                      
   1.00000000000000     
     4.9560739301999996    0.0000000000000000    0.0000000000000000
     0.0000000000000000    2.8052849200000001    0.0000000000000000
     0.0000000000000000    0.0000000000000000   25.0000000000000000
   Pt
     8
Selective dynamics
Direct
  0.0000000000000000  0.0000000000000000  0.0000000000000000   F   F   F
  0.6666666699999979  0.0000000000000000  0.0905064609364743   F   F   F
  0.3333333300000021  0.0000000000000000  0.1796511760794965   F   F   T
  0.5000000000000000  0.5000000000000000  0.0000000000000000   F   F   F
  0.1666666699999979  0.5000000000000000  0.0905064609364743   F   F   F
  0.8333333300000021  0.5000000000000000  0.1796521827237988   F   F   T
  0.0000000000000000  0.0000000000000000  0.2705392276402230   F   F   T
  0.5000000000000000  0.5000000000000000  0.2705377391026856   F   F   T
 
  0.00000000E+00  0.00000000E+00  0.00000000E+00
  0.00000000E+00  0.00000000E+00  0.00000000E+00
  0.00000000E+00  0.00000000E+00  0.00000000E+00
  0.00000000E+00  0.00000000E+00  0.00000000E+00
  0.00000000E+00  0.00000000E+00  0.00000000E+00
  0.00000000E+00  0.00000000E+00  0.00000000E+00
  0.00000000E+00  0.00000000E+00  0.00000000E+00
  0.00000000E+00  0.00000000E+00  0.00000000E+00
