Pt 
 1.0000000000000000
     4.9560739301999996    0.0000000000000000    0.0000000000000000
     0.0000000000000000    2.8052849200000001    0.0000000000000000
     0.0000000000000000    0.0000000000000000   25.0000000000000000
 Pt 
   8
Selective dynamics
Cartesian
  0.0000000000000000  0.0000000000000000  0.0000000000000000   F   F   F
  3.3040493033202356  0.0000000000000000  2.2626615234119090   F   F   F
  1.6520246268797638  0.0000000000000000  4.5253231147036210   F   F   T
  2.4780369650999998  1.4026424600000000  0.0000000000000000   F   F   F
  0.8260123382202360  1.4026424600000000  2.2626615234119090   F   F   F
  4.1300615919797634  1.4026424600000000  4.5253231147036210   F   F   T
  0.0000000000000000  0.0000000000000000  6.7879846381155300   F   F   T
  2.4780369650999998  1.4026424600000000  6.7879846381155300   F   F   T
