Pt  O                                   
   1.00000000000000     
     9.5234361795999991    0.0000000000000000    0.0000000000000000
     0.0000000000000000   11.2211396800000003    0.0000000000000000
     0.0000000000000000    0.0000000000000000   25.0000000000000000
   Pt   O 
    64     2
Selective dynamics
Direct
  0.0000000000000000  0.0000000000000000  0.0000000000000000   F   F   F
  0.3333333349999989  0.0000000000000000  0.0916202208171342   F   F   F
  0.1662135337341820  0.0000889878014412  0.1804834632908822   T   T   T
  0.2500000000000000  0.1250000000000000  0.0000000000000000   F   F   F
  0.0833333349999990  0.1250000000000000  0.0916202208171342   F   F   F
  0.4173259257064662  0.1250799215217677  0.1815901788977886   T   T   T
  0.9992678653207521  0.0010457999652203  0.2730436627518156   T   T   T
  0.2469165003831764  0.1198788963537084  0.2714238077771314   T   T   T
  0.0000000000000000  0.2500000000000000  0.0000000000000000   F   F   F
  0.3333333349999989  0.2500000000000000  0.0916202208171342   F   F   F
  0.1678039067479432  0.2505734715683626  0.1816737596197997   T   T   T
  0.2500000000000000  0.3749999999999999  0.0000000000000000   F   F   F
  0.0833333349999990  0.3749999999999999  0.0916202208171342   F   F   F
  0.4184853628663013  0.3759089459609335  0.1825974533127009   T   T   T
  0.0000259528633224  0.2492056652023796  0.2727917816328426   T   T   T
  0.2491657827247105  0.3799896315338738  0.2755227026859326   T   T   T
  0.0000000000000000  0.4999999999999999  0.0000000000000000   F   F   F
  0.3333333349999989  0.4999999999999999  0.0916202208171342   F   F   F
  0.1697029798391023  0.4970375831491444  0.1832002063119464   T   T   T
  0.2500000000000000  0.6249999999999999  0.0000000000000000   F   F   F
  0.0833333349999990  0.6249999999999999  0.0916202208171342   F   F   F
  0.4194382228706549  0.6253361970754594  0.1828032598859140   T   T   T
  0.0010412190446580  0.5020736913294302  0.2730276436638576   T   T   T
  0.2482375293752604  0.6314416955364557  0.2722768513168530   T   T   T
  0.0000000000000000  0.7499999999999999  0.0000000000000000   F   F   F
  0.3333333349999989  0.7499999999999999  0.0916202208171342   F   F   F
  0.1671422217034852  0.7496771337927719  0.1805864012074121   T   T   T
  0.2500000000000000  0.8749999999999999  0.0000000000000000   F   F   F
  0.0833333349999990  0.8749999999999999  0.0916202208171342   F   F   F
  0.4160945880827240  0.8754186439883842  0.1809081637855930   T   T   T
  0.0003683504009478  0.7528397756010589  0.2731107748011602   T   T   T
  0.2491764658530364  0.8763312235110871  0.2730825867798993   T   T   T
  0.4999999999999999  0.0000000000000000  0.0000000000000000   F   F   F
  0.8333333349999990  0.0000000000000000  0.0916202208171342   F   F   F
  0.6673260641228087  0.0000516449033168  0.1812606826461442   T   T   T
  0.7500000000000000  0.1250000000000000  0.0000000000000000   F   F   F
  0.5833333349999990  0.1250000000000000  0.0916202208171342   F   F   F
  0.9161979323250491  0.1255898065746131  0.1810689951992544   T   T   T
  0.5012798626709750  0.9990323533902492  0.2729458405550816   T   T   T
  0.7514316789838056  0.1246171228497674  0.2735100861703901   T   T   T
  0.4999999999999999  0.2500000000000000  0.0000000000000000   F   F   F
  0.8333333349999990  0.2500000000000000  0.0916202208171342   F   F   F
  0.6638883782553380  0.2496416010579685  0.1833751264062732   T   T   T
  0.7500000000000000  0.3749999999999999  0.0000000000000000   F   F   F
  0.5833333349999990  0.3749999999999999  0.0916202208171342   F   F   F
  0.9167705292641984  0.3748823640301776  0.1808167003225883   T   T   T
  0.5039677292409647  0.2480730927908154  0.2755708415309044   T   T   T
  0.7554488393886726  0.3757776466781139  0.2722916886976894   T   T   T
  0.4999999999999999  0.4999999999999999  0.0000000000000000   F   F   F
  0.8333333349999990  0.4999999999999999  0.0916202208171342   F   F   F
  0.6668759497558328  0.5014753596607989  0.1826211645451248   T   T   T
  0.7500000000000000  0.6249999999999999  0.0000000000000000   F   F   F
  0.5833333349999990  0.6249999999999999  0.0916202208171342   F   F   F
  0.9191299798596470  0.6244254262962482  0.1808839932714550   T   T   T
  0.5063282324915529  0.5108005334382384  0.2751906100666092   T   T   T
  0.7563208551633162  0.6297049248569707  0.2728082553733863   T   T   T
  0.4999999999999999  0.7499999999999999  0.0000000000000000   F   F   F
  0.8333333349999990  0.7499999999999999  0.0916202208171342   F   F   F
  0.6682355121472346  0.7512034257764072  0.1813339518873429   T   T   T
  0.7500000000000000  0.8749999999999999  0.0000000000000000   F   F   F
  0.5833333349999990  0.8749999999999999  0.0916202208171342   F   F   F
  0.9172079194168755  0.8752215461297478  0.1811813068886814   T   T   T
  0.5017114464671345  0.7568856368159116  0.2731528937659413   T   T   T
  0.7522016225658706  0.8772125086203059  0.2735600392623934   T   T   T
  0.4769275300669870  0.4604744708538639  0.3461902731622095   T   T   T
  0.3808995615233965  0.3202328530439871  0.3336363307461486   T   T   T
 
  0.00000000E+00  0.00000000E+00  0.00000000E+00
  0.00000000E+00  0.00000000E+00  0.00000000E+00
 -0.10552202E-01 -0.55419969E-02 -0.48131803E-02
  0.00000000E+00  0.00000000E+00  0.00000000E+00
  0.00000000E+00  0.00000000E+00  0.00000000E+00
 -0.76290496E-03 -0.44249445E-02 -0.61522318E-03
  0.58966647E-03  0.83778677E-02  0.39028322E-03
  0.11764939E-01  0.19398442E-01 -0.10753099E-01
  0.00000000E+00  0.00000000E+00  0.00000000E+00
  0.00000000E+00  0.00000000E+00  0.00000000E+00
 -0.27279296E-02 -0.72523495E-02 -0.29940028E-02
  0.00000000E+00  0.00000000E+00  0.00000000E+00
  0.00000000E+00  0.00000000E+00  0.00000000E+00
 -0.98710247E-02 -0.26644955E-01 -0.66055593E-01
 -0.22391993E-02  0.74375481E-02 -0.42619692E-02
  0.12582358E-01 -0.89853317E-03 -0.60963444E-01
  0.00000000E+00  0.00000000E+00  0.00000000E+00
  0.00000000E+00  0.00000000E+00  0.00000000E+00
 -0.84031108E-02  0.28756952E-03 -0.13628792E-01
  0.00000000E+00  0.00000000E+00  0.00000000E+00
  0.00000000E+00  0.00000000E+00  0.00000000E+00
  0.19991353E-02  0.32244132E-02 -0.79182267E-02
 -0.83271155E-02  0.12509371E-01  0.25197859E-03
  0.13895505E-01 -0.36634259E-02  0.18658730E-02
  0.00000000E+00  0.00000000E+00  0.00000000E+00
  0.00000000E+00  0.00000000E+00  0.00000000E+00
  0.25489586E-02 -0.25844596E-03  0.25386471E-02
  0.00000000E+00  0.00000000E+00  0.00000000E+00
  0.00000000E+00  0.00000000E+00  0.00000000E+00
  0.32636636E-02  0.83316599E-03  0.48494068E-02
  0.60175989E-02  0.32934065E-02 -0.32742752E-03
  0.22226212E-02  0.55106156E-02 -0.58960466E-03
  0.00000000E+00  0.00000000E+00  0.00000000E+00
  0.00000000E+00  0.00000000E+00  0.00000000E+00
  0.14164641E-02 -0.10728712E-02  0.12944693E-02
  0.00000000E+00  0.00000000E+00  0.00000000E+00
  0.00000000E+00  0.00000000E+00  0.00000000E+00
 -0.19649352E-02 -0.41734079E-02  0.16452158E-02
 -0.54758951E-02  0.11571946E-01  0.54645077E-02
 -0.32238644E-02  0.77324360E-03  0.75229635E-04
  0.00000000E+00  0.00000000E+00  0.00000000E+00
  0.00000000E+00  0.00000000E+00  0.00000000E+00
  0.71209537E-02  0.35333534E-02 -0.15739391E-01
  0.00000000E+00  0.00000000E+00  0.00000000E+00
  0.00000000E+00  0.00000000E+00  0.00000000E+00
  0.13453284E-02  0.25441402E-02  0.14096087E-02
 -0.35761417E-02  0.14417399E-01 -0.62759378E-01
 -0.66657944E-02  0.61993742E-02 -0.20025532E-02
  0.00000000E+00  0.00000000E+00  0.00000000E+00
  0.00000000E+00  0.00000000E+00  0.00000000E+00
 -0.55380230E-03  0.20236068E-02 -0.11392994E-01
  0.00000000E+00  0.00000000E+00  0.00000000E+00
  0.00000000E+00  0.00000000E+00  0.00000000E+00
 -0.49186860E-02  0.52642494E-02  0.16277079E-02
 -0.23195891E-01 -0.24576011E-01 -0.67076802E-01
 -0.67701428E-02 -0.94156257E-02  0.87243799E-02
  0.00000000E+00  0.00000000E+00  0.00000000E+00
  0.00000000E+00  0.00000000E+00  0.00000000E+00
 -0.24257700E-02  0.31570018E-02  0.46091485E-02
  0.00000000E+00  0.00000000E+00  0.00000000E+00
  0.00000000E+00  0.00000000E+00  0.00000000E+00
 -0.19398152E-02  0.95749613E-04  0.44927656E-02
  0.36069930E-02 -0.17893772E-01  0.19070207E-01
  0.28178058E-02  0.81642797E-03 -0.32652272E-02
 -0.30042969E+00 -0.56188400E+00  0.56702397E-01
  0.36318892E+00  0.59178443E+00  0.29342546E+00
