Pt  O 
 1.0000000000000000
     9.7177920199999992    0.0000000000000000    0.0000000000000000
     0.0000000000000000   11.4455624736000008    0.0000000000000000
     0.0000000000000000    0.0000000000000000   25.0000000000000000
 Pt  O  
  64   2
Selective dynamics
Cartesian
  0.0000000000000000  0.0000000000000000  0.0000000000000000   F   F   F
  3.2392640228629768  0.0000000000000000  2.2905055204283551   F   F   F
  1.6252651829045823 11.4541816095045430  4.4659305918553880   T   T   T
  2.4294480049999998  1.4306953092000001  0.0000000000000000   F   F   F
  0.8098160178629769  1.4306953092000001  2.2905055204283551   F   F   F
  4.0577678576496412  1.4600214146758486  4.5088561746779874   T   T   T
 -0.0239883268528564 11.4201184340382635  6.7017860736000134   T   T   T
  2.3777245966318921  1.3373991676296624  6.7223767101217629   T   T   T
  0.0000000000000000  2.8613906184000002  0.0000000000000000   F   F   F
  3.2392640228629768  2.8613906184000002  2.2905055204283551   F   F   F
  1.6283563142042519  2.8626509795669222  4.4786397890413703   T   T   T
  2.4294480049999998  4.2920859276000005  0.0000000000000000   F   F   F
  0.8098160178629769  4.2920859276000005  2.2905055204283551   F   F   F
  4.0433567532402090  4.2920253809360620  4.5025818586357635   T   T   T
  9.6831440452495574  2.8179763127769522  6.6848395756450429   T   T   T
  2.2851076543047766  4.2920867518737094  6.7219404894749966   T   T   T
  0.0000000000000000  5.7227812368000004  0.0000000000000000   F   F   F
  3.2392640228629768  5.7227812368000004  2.2905055204283551   F   F   F
  1.6283137545727739  5.7214999483942588  4.4786318555235587   T   T   T
  2.4294480049999998  7.1534765460000003  0.0000000000000000   F   F   F
  0.8098160178629769  7.1534765460000003  2.2905055204283551   F   F   F
  4.0577159016282112  7.1240037073926077  4.5088196846792190   T   T   T
  9.6831139727644988  5.7661515876929883  6.6848741746456266   T   T   T
  2.3776613236983630  7.2466297147823937  6.7224133304462619   T   T   T
  0.0000000000000000  8.5841718552000010  0.0000000000000000   F   F   F
  3.2392640228629768  8.5841718552000010  2.2905055204283551   F   F   F
  1.6252581138911717  8.5754473466097654  4.4659281213794841   T   T   T
  2.4294480049999998 10.0148671644000000  0.0000000000000000   F   F   F
  0.8098160178629769 10.0148671644000000  2.2905055204283551   F   F   F
  4.0417195012549323 10.0148165964049944  4.4555855957474950   T   T   T
 -0.0239719332840259  8.6095584261373475  6.7018375086378832   T   T   T
  2.4083244336595948 10.0147436282058848  6.7009280427356721   T   T   T
  4.8588960099999996  0.0000000000000000  0.0000000000000000   F   F   F
  8.0981600328629764  0.0000000000000000  2.2905055204283551   F   F   F
  6.4724857610489375 11.4438463111598701  4.4592231262497783   T   T   T
  7.2883440149999998  1.4306953092000001  0.0000000000000000   F   F   F
  5.6687120278629761  1.4306953092000001  2.2905055204283551   F   F   F
  8.9047705046889938  1.4276464248732050  4.4519276045870635   T   T   T
  4.8642781562219772 11.4104029138840168  6.6938727099359454   T   T   T
  7.3081680409033734  1.3902806255963798  6.6965335490285387   T   T   T
  4.8588960099999996  2.8613906184000002  0.0000000000000000   F   F   F
  8.0981600328629764  2.8613906184000002  2.2905055204283551   F   F   F
  6.4603560452437163  2.8607803589912031  4.4935575285790277   T   T   T
  7.2883440149999998  4.2920859276000005  0.0000000000000000   F   F   F
  5.6687120278629761  4.2920859276000005  2.2905055204283551   F   F   F
  8.9127511752247699  4.2921381484720555  4.4495484966363312   T   T   T
  4.9324446238498103  2.8444306507061849  6.7742900812714035   T   T   T
  7.3575800948928212  4.2920354866941546  6.6762606448501369   T   T   T
  4.8588960099999996  5.7227812368000004  0.0000000000000000   F   F   F
  8.0981600328629764  5.7227812368000004  2.2905055204283551   F   F   F
  6.4603207941971448  5.7232997144965729  4.4935583343087284   T   T   T
  7.2883440149999998  7.1534765460000003  0.0000000000000000   F   F   F
  5.6687120278629761  7.1534765460000003  2.2905055204283551   F   F   F
  8.9047135253558380  7.1565213672298942  4.4519241340908380   T   T   T
  4.9325141142377991  5.7396000341356315  6.7742317933949581   T   T   T
  7.3081494938250993  7.1939107483662710  6.6964604962290917   T   T   T
  4.8588960099999996  8.5841718552000010  0.0000000000000000   F   F   F
  8.0981600328629764  8.5841718552000010  2.2905055204283551   F   F   F
  6.4724588087420649  8.5858358287211125  4.4591702093846308   T   T   T
  7.2883440149999998 10.0148671644000000  0.0000000000000000   F   F   F
  5.6687120278629761 10.0148671644000000  2.2905055204283551   F   F   F
  8.9130088345841898 10.0148143609350484  4.4506493142482650   T   T   T
  4.8641994988875812  8.6192425672610256  6.6937842584527480   T   T   T
  7.2921529678998676 10.0147566008603537  6.6975357504403501   T   T   T
  4.0562850095736378  3.1877189174368348  8.2223613629085079   T   T   T
  4.0562654654907657  5.3963489135549052  8.2223497774490948   T   T   T
