Pt  O 
 1.0000000000000000
     9.9121478603999993    0.0000000000000000    0.0000000000000000
     0.0000000000000000   11.2211396800000003    0.0000000000000000
     0.0000000000000000    0.0000000000000000   25.0000000000000000
 Pt  O  
  64   2
Selective dynamics
Cartesian
  0.0000000000000000  0.0000000000000000  0.0000000000000000   F   F   F
  3.3040493033202365  0.0000000000000000  2.2905055204283551   F   F   F
  1.6631565821852259  0.0244544977866997  4.5399031008431079   T   T   T
  2.4780369650999998  1.4026424600000000  0.0000000000000000   F   F   F
  0.8260123382202365  1.4026424600000000  2.2905055204283551   F   F   F
  4.1240951108575761  1.4216310321922396  4.5458034236881772   T   T   T
  9.8801638017363391 11.2089161194481708  6.8002048761404348   T   T   T
  2.4039727614950674  1.2660305961966920  6.8488861741626046   T   T   T
  0.0000000000000000  2.8052849200000001  0.0000000000000000   F   F   F
  3.3040493033202365  2.8052849200000001  2.2905055204283551   F   F   F
  1.6665102699913006  2.8249901445247971  4.5620826064434006   T   T   T
  2.4780369650999998  4.2079273800000001  0.0000000000000000   F   F   F
  0.8260123382202365  4.2079273800000001  2.2905055204283551   F   F   F
  4.1235990778339744  4.2079007387805509  4.5862088724780579   T   T   T
  9.8498622413238532  2.7879754754695871  6.7732069828028125   T   T   T
  2.3032246887800114  4.2079028501534719  6.9259064643673804   T   T   T
  0.0000000000000000  5.6105698400000001  0.0000000000000000   F   F   F
  3.3040493033202365  5.6105698400000001  2.2905055204283551   F   F   F
  1.6664776399282148  5.5909478655317608  4.5621735867215820   T   T   T
  2.4780369650999998  7.0132123000000002  0.0000000000000000   F   F   F
  0.8260123382202365  7.0132123000000002  2.2905055204283551   F   F   F
  4.1241037114752093  6.9942848318861204  4.5458971189154793   T   T   T
  9.8498612559111169  5.6278441918066813  6.7732748109397551   T   T   T
  2.4039440724488097  7.1498232991463073  6.8489209760817200   T   T   T
  0.0000000000000000  8.4158547600000002  0.0000000000000000   F   F   F
  3.3040493033202365  8.4158547600000002  2.2905055204283551   F   F   F
  1.6631535382705760  8.3914514892891958  4.5399431759986149   T   T   T
  2.4780369650999998  9.8184972200000011  0.0000000000000000   F   F   F
  0.8260123382202365  9.8184972200000011  2.2905055204283551   F   F   F
  4.1223872339048198  9.8185559684524986  4.5152597065727429   T   T   T
  9.8801828924824395  8.4282315974012452  6.8002613674423049   T   T   T
  2.4542210111351550  9.8185273194063178  6.8009713099822049   T   T   T
  4.9560739301999996  0.0000000000000000  0.0000000000000000   F   F   F
  8.2601232335202361  0.0000000000000000  2.2905055204283551   F   F   F
  6.6143744230326629 11.2195780509630385  4.5114362420332146   T   T   T
  7.4341108952999999  1.4026424600000000  0.0000000000000000   F   F   F
  5.7820862684202359  1.4026424600000000  2.2905055204283551   F   F   F
  9.0873642185321213  1.4067414999758103  4.5045616369594370   T   T   T
  4.9956594331110606 11.1905917714436640  6.7639790909948747   T   T   T
  7.4724987937514866  1.3676885457961483  6.8039470871392327   T   T   T
  4.9560739301999996  2.8052849200000001  0.0000000000000000   F   F   F
  8.2601232335202361  2.8052849200000001  2.2905055204283551   F   F   F
  6.5896929674767977  2.8020145920011710  4.5463226463108075   T   T   T
  7.4341108952999999  4.2079273800000001  0.0000000000000000   F   F   F
  5.7820862684202359  4.2079273800000001  2.2905055204283551   F   F   F
  9.0748371989205623  4.2079207355889423  4.4981242188966650   T   T   T
  5.1217411363439300  2.7836882324548045  6.8613181685623834   T   T   T
  7.4825861922345842  4.2079012182188453  6.8000077832379100   T   T   T
  4.9560739301999996  5.6105698400000001  0.0000000000000000   F   F   F
  8.2601232335202361  5.6105698400000001  2.2905055204283551   F   F   F
  6.5896808279952985  5.6137839028826022  4.5463587623488726   T   T   T
  7.4341108952999999  7.0132123000000002  0.0000000000000000   F   F   F
  5.7820862684202359  7.0132123000000002  2.2905055204283551   F   F   F
  9.0873721043915410  7.0091384105614400  4.5046785453298970   T   T   T
  5.1217298985981499  5.6321710024694918  6.8613108165032477   T   T   T
  7.4725030189018860  7.0482341739332588  6.8039822327942669   T   T   T
  4.9560739301999996  8.4158547600000002  0.0000000000000000   F   F   F
  8.2601232335202361  8.4158547600000002  2.2905055204283551   F   F   F
  6.6144029358583163  8.4174482828520905  4.5114741855243503   T   T   T
  7.4341108952999999  9.8184972200000011  0.0000000000000000   F   F   F
  5.7820862684202359  9.8184972200000011  2.2905055204283551   F   F   F
  9.1115525798271051  9.8185164057815513  4.5012748192410754   T   T   T
  4.9956414120457362  8.4465070074959883  6.7639203889245731   T   T   T
  7.4653625446309890  9.8185702450483472  6.7905935882240200   T   T   T
  3.3664192670808624  2.7089861875406074  7.9025914798701677   T   T   T
  3.3664250823448381  5.7068429576965789  7.9026030528793880   T   T   T
