Pt  O 
 1.0000000000000000
     9.5234361795999991    0.0000000000000000    0.0000000000000000
     0.0000000000000000   11.2211396800000003    0.0000000000000000
     0.0000000000000000    0.0000000000000000   25.0000000000000000
 Pt  O  
  64   2
Selective dynamics
Cartesian
  0.0000000000000000  0.0000000000000000  0.0000000000000000   F   F   F
  3.1744787424057170  0.0000000000000000  2.2905055204283551   F   F   F
  1.6013916395662631  0.0287697570929633  4.5547633369425675   T   T   T
  2.3808590448999998  1.4026424600000000  0.0000000000000000   F   F   F
  0.7936196975057174  1.4026424600000000  2.2905055204283551   F   F   F
  3.9693052654489165  1.4131922122880396  4.5445391839523719   T   T   T
  9.4899654153328932 11.1992665444506301  6.8324611351179874   T   T   T
  2.3273802308656140  1.2668692945178599  6.8689466456881618   T   T   T
  0.0000000000000000  2.8052849200000001  0.0000000000000000   F   F   F
  3.1744787424057170  2.8052849200000001  2.2905055204283551   F   F   F
  1.6104910540702229  2.8307777869092750  4.5765918788597499   T   T   T
  2.3808590448999998  4.2079273800000001  0.0000000000000000   F   F   F
  0.7936196975057174  4.2079273800000001  2.2905055204283551   F   F   F
  3.9710987047137687  4.2079552008094465  4.5752160759250327   T   T   T
  9.4730892639969912  2.7735061256993498  6.7992301260164476   T   T   T
  2.2507806446824508  4.2079738671722628  6.9339979320138356   T   T   T
  0.0000000000000000  5.6105698400000001  0.0000000000000000   F   F   F
  3.1744787424057170  5.6105698400000001  2.2905055204283551   F   F   F
  1.6104690565255626  5.5850613736389798  4.5766236265581126   T   T   T
  2.3808590448999998  7.0132123000000002  0.0000000000000000   F   F   F
  0.7936196975057174  7.0132123000000002  2.2905055204283551   F   F   F
  3.9692758074765488  7.0026904652193842  4.5446161154771971   T   T   T
  9.4730341704317791  5.6424122985507106  6.7992859671597126   T   T   T
  2.3273590119082446  7.1490303597141507  6.8690075627891671   T   T   T
  0.0000000000000000  8.4158547600000002  0.0000000000000000   F   F   F
  3.1744787424057170  8.4158547600000002  2.2905055204283551   F   F   F
  1.6013653397109051  8.3871566402768902  4.5547401667721479   T   T   T
  2.3808590448999998  9.8184972200000011  0.0000000000000000   F   F   F
  0.7936196975057174  9.8184972200000011  2.2905055204283551   F   F   F
  3.9620848363755612  9.8185160930045576  4.5194037995867351   T   T   T
  9.4899805383910145  8.4378081958121811  6.8324706456446425   T   T   T
  2.3642970283739091  9.8184714441220962  6.8281164282648170   T   T   T
  4.7617180897999996  0.0000000000000000  0.0000000000000000   F   F   F
  7.9361968322057166  0.0000000000000000  2.2905055204283551   F   F   F
  6.3535447041301847 11.2189998785691500  4.5188139996979206   T   T   T
  7.1425771346999998  1.4026424600000000  0.0000000000000000   F   F   F
  5.5553377873057164  1.4026424600000000  2.2905055204283551   F   F   F
  8.7316859058172192  1.4085426858014611  4.5182659819782653   T   T   T
  4.7895271839902280 11.1844102222377977  6.7997517669013128   T   T   T
  7.1619020629514871  1.3602827860811662  6.8327114673573597   T   T   T
  4.7617180897999996  2.8052849200000001  0.0000000000000000   F   F   F
  7.9361968322057166  2.8052849200000001  2.2905055204283551   F   F   F
  6.3294753981586407  2.8033446202214267  4.5687464669427076   T   T   T
  7.1425771346999998  4.2079273800000001  0.0000000000000000   F   F   F
  5.5553377873057164  4.2079273800000001  2.2905055204283551   F   F   F
  8.7234241431428536  4.2079404203657313  4.5171446226841203   T   T   T
  4.8756293870922205  2.7773730758239350  6.8795645989873648   T   T   T
  7.1802440015872548  4.2079344248811044  6.8285623490459431   T   T   T
  4.7617180897999996  5.6105698400000001  0.0000000000000000   F   F   F
  7.9361968322057166  5.6105698400000001  2.2905055204283551   F   F   F
  6.3294819528496324  5.6125582679380281  4.5687580029939596   T   T   T
  7.1425771346999998  7.0132123000000002  0.0000000000000000   F   F   F
  5.5553377873057164  7.0132123000000002  2.2905055204283551   F   F   F
  8.7317069271631507  7.0072781686037642  4.5182660988920649   T   T   T
  4.8756794266774763  5.6385341311098980  6.8795935889734299   T   T   T
  7.1619151199285547  7.0556212994796583  6.8327743716585854   T   T   T
  4.7617180897999996  8.4158547600000002  0.0000000000000000   F   F   F
  7.9361968322057166  8.4158547600000002  2.2905055204283551   F   F   F
  6.3535621589407025  8.4180069991412783  4.5188294925479351   T   T   T
  7.1425771346999998  9.8184972200000011  0.0000000000000000   F   F   F
  5.5553377873057164  9.8184972200000011  2.2905055204283551   F   F   F
  8.7512122772675500  9.8185175435956626  4.5162823715894724   T   T   T
  4.7895578913581875  8.4526821277338353  6.7997830866910025   T   T   T
  7.1575920783365827  9.8185320674215042  6.8248246256816500   T   T   T
  3.1946218772890336  2.7022589671687234  8.0193350575380471   T   T   T
  3.1946415523085125  5.7136769364863591  8.0193185740421313   T   T   T
