Pt  O                                   
   1.00000000000000     
     9.9121478603999993    0.0000000000000000    0.0000000000000000
     0.0000000000000000   11.2211396800000003    0.0000000000000000
     0.0000000000000000    0.0000000000000000   25.0000000000000000
   Pt   O 
    64     2
Selective dynamics
Direct
  0.0000000000000000  0.0000000000000000  0.0000000000000000   F   F   F
  0.3333333349999990  0.0000000000000000  0.0916202208171342   F   F   F
  0.1689260414125934  0.9996426787838930  0.1783792270912105   T   T   T
  0.2500000000000000  0.1250000000000000  0.0000000000000000   F   F   F
  0.0833333349999990  0.1250000000000000  0.0916202208171342   F   F   F
  0.4197352233111559  0.1284018450928122  0.1810385177305841   T   T   T
  0.0023449257046150  0.9988067599547636  0.2678990272710210   T   T   T
  0.2489328529038912  0.1241339359261205  0.2677543546107858   T   T   T
  0.0000000000000000  0.2500000000000000  0.0000000000000000   F   F   F
  0.3333333349999990  0.2500000000000000  0.0916202208171342   F   F   F
  0.1669406622165713  0.2489197104817769  0.1780482897947185   T   T   T
  0.2500000000000000  0.3750000000000000  0.0000000000000000   F   F   F
  0.0833333349999990  0.3750000000000000  0.0916202208171342   F   F   F
  0.4157661536426149  0.3750022937215830  0.1791470367079276   T   T   T
  0.0012967480329374  0.2479833353190267  0.2681457893984895   T   T   T
  0.2417016333060239  0.3749953916277663  0.2660369918564221   T   T   T
  0.0000000000000000  0.5000000000000000  0.0000000000000000   F   F   F
  0.3333333349999990  0.5000000000000000  0.0916202208171342   F   F   F
  0.1669368956576095  0.5010654901917173  0.1780478907586203   T   T   T
  0.2500000000000000  0.6250000000000000  0.0000000000000000   F   F   F
  0.0833333349999990  0.6250000000000000  0.0916202208171342   F   F   F
  0.4197409441772572  0.6215771321819566  0.1810432426597413   T   T   T
  0.0012954283305835  0.5019981877315508  0.2681478170851325   T   T   T
  0.2489252756132957  0.6258306363993659  0.2677519925129550   T   T   T
  0.0000000000000000  0.7500000000000000  0.0000000000000000   F   F   F
  0.3333333349999990  0.7500000000000000  0.0916202208171342   F   F   F
  0.1689145369030086  0.7503384051299540  0.1783763887517709   T   T   T
  0.2500000000000000  0.8750000000000000  0.0000000000000000   F   F   F
  0.0833333349999990  0.8750000000000000  0.0916202208171342   F   F   F
  0.4180688812025302  0.8749782961041864  0.1781946016182169   T   T   T
  0.0023487494946911  0.7511732608346254  0.2678989327887985   T   T   T
  0.2516991043487481  0.8749889052661750  0.2681519785771310   T   T   T
  0.5000000000000000  0.0000000000000000  0.0000000000000000   F   F   F
  0.8333333349999990  0.0000000000000000  0.0916202208171342   F   F   F
  0.6674724334615502  0.9999998561860491  0.1786636352207382   T   T   T
  0.7500000000000000  0.1250000000000000  0.0000000000000000   F   F   F
  0.5833333349999990  0.1250000000000000  0.0916202208171342   F   F   F
  0.9178827478837961  0.1246410333498751  0.1782306593530031   T   T   T
  0.5015238371624414  0.9975448358252217  0.2681526639132317   T   T   T
  0.7546575503124584  0.1235595695187286  0.2674770695200354   T   T   T
  0.5000000000000000  0.2500000000000000  0.0000000000000000   F   F   F
  0.8333333349999990  0.2500000000000000  0.0916202208171342   F   F   F
  0.6649760478845705  0.2502519440568275  0.1799463238124752   T   T   T
  0.7500000000000000  0.3750000000000000  0.0000000000000000   F   F   F
  0.5833333349999990  0.3750000000000000  0.0916202208171342   F   F   F
  0.9185367279341736  0.3749938807905976  0.1778495968851709   T   T   T
  0.5014921039214748  0.2490547528375689  0.2712791542170251   T   T   T
  0.7619284813066851  0.3749999287292012  0.2663514975486330   T   T   T
  0.5000000000000000  0.5000000000000000  0.0000000000000000   F   F   F
  0.8333333349999990  0.5000000000000000  0.0916202208171342   F   F   F
  0.6649784338478604  0.4997362138932606  0.1799468534204574   T   T   T
  0.7500000000000000  0.6250000000000000  0.0000000000000000   F   F   F
  0.5833333349999990  0.6250000000000000  0.0916202208171342   F   F   F
  0.9178719031871736  0.6253454983157448  0.1782313560789009   T   T   T
  0.5014717924701734  0.5008991786973622  0.2712902360160477   T   T   T
  0.7546533539525351  0.6264255568122664  0.2674838503565878   T   T   T
  0.5000000000000000  0.7500000000000000  0.0000000000000000   F   F   F
  0.8333333349999990  0.7500000000000000  0.0916202208171342   F   F   F
  0.6674779356806698  0.7499839572380204  0.1786612452327937   T   T   T
  0.7500000000000000  0.8750000000000000  0.0000000000000000   F   F   F
  0.5833333349999990  0.8750000000000000  0.0916202208171342   F   F   F
  0.9182576907069141  0.8749934113840422  0.1783433287021352   T   T   T
  0.5015619404805656  0.7524059181159521  0.2681537394150428   T   T   T
  0.7524305828255249  0.8749935535983381  0.2677877795207720   T   T   T
  0.5019915596142860  0.3137938306848080  0.3462278823515452   T   T   T
  0.5019621353824495  0.4361296212747164  0.3462333035058762   T   T   T
 
  0.00000000E+00  0.00000000E+00  0.00000000E+00
  0.00000000E+00  0.00000000E+00  0.00000000E+00
  0.00000000E+00  0.00000000E+00  0.00000000E+00
  0.00000000E+00  0.00000000E+00  0.00000000E+00
  0.00000000E+00  0.00000000E+00  0.00000000E+00
  0.00000000E+00  0.00000000E+00  0.00000000E+00
  0.00000000E+00  0.00000000E+00  0.00000000E+00
  0.00000000E+00  0.00000000E+00  0.00000000E+00
  0.00000000E+00  0.00000000E+00  0.00000000E+00
  0.00000000E+00  0.00000000E+00  0.00000000E+00
  0.00000000E+00  0.00000000E+00  0.00000000E+00
  0.00000000E+00  0.00000000E+00  0.00000000E+00
  0.00000000E+00  0.00000000E+00  0.00000000E+00
  0.00000000E+00  0.00000000E+00  0.00000000E+00
  0.00000000E+00  0.00000000E+00  0.00000000E+00
  0.00000000E+00  0.00000000E+00  0.00000000E+00
  0.00000000E+00  0.00000000E+00  0.00000000E+00
  0.00000000E+00  0.00000000E+00  0.00000000E+00
  0.00000000E+00  0.00000000E+00  0.00000000E+00
  0.00000000E+00  0.00000000E+00  0.00000000E+00
  0.00000000E+00  0.00000000E+00  0.00000000E+00
  0.00000000E+00  0.00000000E+00  0.00000000E+00
  0.00000000E+00  0.00000000E+00  0.00000000E+00
  0.00000000E+00  0.00000000E+00  0.00000000E+00
  0.00000000E+00  0.00000000E+00  0.00000000E+00
  0.00000000E+00  0.00000000E+00  0.00000000E+00
  0.00000000E+00  0.00000000E+00  0.00000000E+00
  0.00000000E+00  0.00000000E+00  0.00000000E+00
  0.00000000E+00  0.00000000E+00  0.00000000E+00
  0.00000000E+00  0.00000000E+00  0.00000000E+00
  0.00000000E+00  0.00000000E+00  0.00000000E+00
  0.00000000E+00  0.00000000E+00  0.00000000E+00
  0.00000000E+00  0.00000000E+00  0.00000000E+00
  0.00000000E+00  0.00000000E+00  0.00000000E+00
  0.00000000E+00  0.00000000E+00  0.00000000E+00
  0.00000000E+00  0.00000000E+00  0.00000000E+00
  0.00000000E+00  0.00000000E+00  0.00000000E+00
  0.00000000E+00  0.00000000E+00  0.00000000E+00
  0.00000000E+00  0.00000000E+00  0.00000000E+00
  0.00000000E+00  0.00000000E+00  0.00000000E+00
  0.00000000E+00  0.00000000E+00  0.00000000E+00
  0.00000000E+00  0.00000000E+00  0.00000000E+00
  0.00000000E+00  0.00000000E+00  0.00000000E+00
  0.00000000E+00  0.00000000E+00  0.00000000E+00
  0.00000000E+00  0.00000000E+00  0.00000000E+00
  0.00000000E+00  0.00000000E+00  0.00000000E+00
  0.00000000E+00  0.00000000E+00  0.00000000E+00
  0.00000000E+00  0.00000000E+00  0.00000000E+00
  0.00000000E+00  0.00000000E+00  0.00000000E+00
  0.00000000E+00  0.00000000E+00  0.00000000E+00
  0.00000000E+00  0.00000000E+00  0.00000000E+00
  0.00000000E+00  0.00000000E+00  0.00000000E+00
  0.00000000E+00  0.00000000E+00  0.00000000E+00
  0.00000000E+00  0.00000000E+00  0.00000000E+00
  0.00000000E+00  0.00000000E+00  0.00000000E+00
  0.00000000E+00  0.00000000E+00  0.00000000E+00
  0.00000000E+00  0.00000000E+00  0.00000000E+00
  0.00000000E+00  0.00000000E+00  0.00000000E+00
  0.00000000E+00  0.00000000E+00  0.00000000E+00
  0.00000000E+00  0.00000000E+00  0.00000000E+00
  0.00000000E+00  0.00000000E+00  0.00000000E+00
  0.00000000E+00  0.00000000E+00  0.00000000E+00
  0.00000000E+00  0.00000000E+00  0.00000000E+00
  0.00000000E+00  0.00000000E+00  0.00000000E+00
  0.00000000E+00  0.00000000E+00  0.00000000E+00
  0.00000000E+00  0.00000000E+00  0.00000000E+00
