Pt  O 
 1.0000000000000000
     9.9121478603999993    0.0000000000000000    0.0000000000000000
     0.0000000000000000   11.2211396800000003    0.0000000000000000
     0.0000000000000000    0.0000000000000000   25.0000000000000000
 Pt  O  
  64   2
Selective dynamics
Cartesian
  0.0000000000000000  0.0000000000000000  0.0000000000000000   F   F   F
  3.3040493033202365  0.0000000000000000  2.2905055204283551   F   F   F
  1.6693752968759914 11.2166112119462600  4.5121111321105749   T   T   T
  2.4780369650999998  1.4026424600000000  0.0000000000000000   F   F   F
  0.8260123382202365  1.4026424600000000  2.2905055204283551   F   F   F
  4.1556646844052807  1.4404873449074185  4.5913371812390071   T   T   T
  0.0102660297761174 11.2095588531709840  6.7941090812625173   T   T   T
  2.4519574862262132  1.3913707546105207  6.7844578260375048   T   T   T
  0.0000000000000000  2.8052849200000001  0.0000000000000000   F   F   F
  3.3040493033202365  2.8052849200000001  2.2905055204283551   F   F   F
  1.6491674785292953  2.7937719788484623  4.5047438892647280   T   T   T
  2.4780369650999998  4.2079273800000001  0.0000000000000000   F   F   F
  0.8260123382202365  4.2079273800000001  2.2905055204283551   F   F   F
  4.1139734348084032  4.2077650513415863  4.5286202560593845   T   T   T
  9.9131603606376473  2.7845175011835925  6.8016747917063096   T   T   T
  2.3851821599677181  4.2078197568063471  6.7378487748878531   T   T   T
  0.0000000000000000  5.6105698400000001  0.0000000000000000   F   F   F
  3.3040493033202365  5.6105698400000001  2.2905055204283551   F   F   F
  1.6491612481376938  5.6220100985850454  4.5047483634874528   T   T   T
  2.4780369650999998  7.0132123000000002  0.0000000000000000   F   F   F
  0.8260123382202365  7.0132123000000002  2.2905055204283551   F   F   F
  4.1556273114074243  6.9750725286776030  4.5913359908485374   T   T   T
  9.9131306187147885  5.6312639955119836  6.8016673425108376   T   T   T
  2.4518766905170186  7.0242168692402460  6.7845468263336723   T   T   T
  0.0000000000000000  8.4158547600000002  0.0000000000000000   F   F   F
  3.3040493033202365  8.4158547600000002  2.2905055204283551   F   F   F
  1.6693529365341859  8.4201631274580198  4.5120901204438297   T   T   T
  2.4780369650999998  9.8184972200000011  0.0000000000000000   F   F   F
  0.8260123382202365  9.8184972200000011  2.2905055204283551   F   F   F
  4.1388509919309229  9.8184334628295300  4.5095568357319751   T   T   T
  0.0102850507362542  8.4272605284891888  6.7941346643476077   T   T   T
  2.4806577157370988  9.8183245027745514  6.7975781390150525   T   T   T
  4.9560739301999996  0.0000000000000000  0.0000000000000000   F   F   F
  8.2601232335202361  0.0000000000000000  2.2905055204283551   F   F   F
  6.6143501480915372 11.2195440275362834  4.5214559458661245   T   T   T
  7.4341108952999999  1.4026424600000000  0.0000000000000000   F   F   F
  5.7820862684202359  1.4026424600000000  2.2905055204283551   F   F   F
  9.0949896702631303  1.4013931617279500  4.5139460121500301   T   T   T
  4.9598086852568048 11.1924865054436626  6.7951919814122101   T   T   T
  7.4704557432684249  1.3842967293300525  6.7804145063231651   T   T   T
  4.9560739301999996  2.8052849200000001  0.0000000000000000   F   F   F
  8.2601232335202361  2.8052849200000001  2.2905055204283551   F   F   F
  6.5887541557527163  2.8076816865166072  4.5562972871603051   T   T   T
  7.4341108952999999  4.2079273800000001  0.0000000000000000   F   F   F
  5.7820862684202359  4.2079273800000001  2.2905055204283551   F   F   F
  9.0991550455922550  4.2079490038651528  4.4982719618208922   T   T   T
  4.9634496857976549  2.7986383081327268  6.8789465447974374   T   T   T
  7.5444036348897683  4.2078392230815549  6.7506550237323895   T   T   T
  4.9560739301999996  5.6105698400000001  0.0000000000000000   F   F   F
  8.2601232335202361  5.6105698400000001  2.2905055204283551   F   F   F
  6.5887574134393088  5.6080404237738035  4.5561002188437678   T   T   T
  7.4341108952999999  7.0132123000000002  0.0000000000000000   F   F   F
  5.7820862684202359  7.0132123000000002  2.2905055204283551   F   F   F
  9.0949103173362964  7.0144126516192165  4.5137853646595048   T   T   T
  4.9631986234741197  5.6165770965110857  6.8794723315111241   T   T   T
  7.4704775384854756  7.0311483502450063  6.7801301239733203   T   T   T
  4.9560739301999996  8.4158547600000002  0.0000000000000000   F   F   F
  8.2601232335202361  8.4158547600000002  2.2905055204283551   F   F   F
  6.6143020236094632  8.4172802469051256  4.5213723117296949   T   T   T
  7.4341108952999999  9.8184972200000011  0.0000000000000000   F   F   F
  5.7820862684202359  9.8184972200000011  2.2905055204283551   F   F   F
  9.0985477950959535  9.8185668192613385  4.5155680735587600   T   T   T
  4.9597823861128258  8.4440986211158737  6.7951371245691945   T   T   T
  7.4509701516280362  9.8183386642076425  6.7883393285681173   T   T   T
  4.9603765261914745  3.5215575817677744  8.7486766022160047   T   T   T
  4.9602421704893409  4.8929467194700527  8.7488261505498475   T   T   T
