Pt  O 
 1.0000000000000000
     9.7177920199999992    0.0000000000000000    0.0000000000000000
     0.0000000000000000   10.9967168863999998    0.0000000000000000
     0.0000000000000000    0.0000000000000000   25.0000000000000000
 Pt  O  
  64   2
Selective dynamics
Cartesian
  0.0000000000000000  0.0000000000000000  0.0000000000000000   F   F   F
  3.2392640228629763  0.0000000000000000  2.2905055204283551   F   F   F
  1.6343349288093278 -0.0029733433235098  4.5245179779042655   T   T   T
  2.4294480049999994  1.3745896108000000  0.0000000000000000   F   F   F
  0.8098160178629767  1.3745896108000000  2.2905055204283551   F   F   F
  4.0732812155666842  1.4048609085791584  4.5245179779042655   T   T   T
  0.0096320640649890 -0.0133292019747213  6.7867769329225345   T   T   T
  2.4089358408088128  1.3602623787813739  6.7867769329225345   T   T   T
  0.0000000000000000  2.7491792215999999  0.0000000000000000   F   F   F
  3.2392640228629763  2.7491792215999999  2.2905055204283551   F   F   F
  1.6213822423422621  2.7391177076759141  4.5245179779042655   T   T   T
  2.4294480049999994  4.1237688323999997  0.0000000000000000   F   F   F
  0.8098160178629767  4.1237688323999997  2.2905055204283551   F   F   F
  4.0474575174683514  4.1236381821947043  4.5245179779042655   T   T   T
 -0.0003400472268539  2.7250273402065557  6.7867769329225345   T   T   T
  2.3510773460011642  4.1236611054410908  6.7867769329225345   T   T   T
  0.0000000000000000  5.4983584431999999  0.0000000000000000   F   F   F
  3.2392640228629763  5.4983584431999999  2.2905055204283551   F   F   F
  1.6214545483086094  5.5083165903618410  4.5245179779042655   T   T   T
  2.4294480049999994  6.8729480540000001  0.0000000000000000   F   F   F
  0.8098160178629767  6.8729480540000001  2.2905055204283551   F   F   F
  4.0732466737472857  6.8424811658165519  4.5245179779042655   T   T   T
 -0.0004543373553524  5.5222124438550031  6.7867769329225345   T   T   T
  2.4088627143508670  6.8868962439700816  6.7867769329225345   T   T   T
  0.0000000000000000  8.2475376647999994  0.0000000000000000   F   F   F
  3.2392640228629763  8.2475376647999994  2.2905055204283551   F   F   F
  1.6343372631297812  8.2504134182829194  4.5245179779042655   T   T   T
  2.4294480049999994  9.6221272756000005  0.0000000000000000   F   F   F
  0.8098160178629767  9.6221272756000005  2.2905055204283551   F   F   F
  4.0570291619547643  9.6220472929085794  4.5245179779042655   T   T   T
  0.0096080214251546  8.2606911895985036  6.7867769329225345   T   T   T
  2.4340292980495128  9.6220308735574598  6.7867769329225345   T   T   T
  4.8588960099999987  0.0000000000000000  0.0000000000000000   F   F   F
  8.0981600328629746  0.0000000000000000  2.2905055204283551   F   F   F
  6.4797924463927448 -0.0012253893648360  4.5245179779042655   T   T   T
  7.2883440149999990  1.3745896108000000  0.0000000000000000   F   F   F
  5.6687120278629752  1.3745896108000000  2.2905055204283551   F   F   F
  8.9141543397519012  1.3696617975920720  4.5245179779042655   T   T   T
  4.8631560278959114 -0.0266494672238095  6.7867769329225345   T   T   T
  7.3160100839675763  1.3548107223403920  6.7867769329225345   T   T   T
  4.8588960099999987  2.7491792215999999  0.0000000000000000   F   F   F
  8.0981600328629746  2.7491792215999999  2.2905055204283551   F   F   F
  6.4657535235760557  2.7496385476975647  4.5245179779042655   T   T   T
  7.2883440149999990  4.1237688323999997  0.0000000000000000   F   F   F
  5.6687120278629752  4.1237688323999997  2.2905055204283551   F   F   F
  8.9207683699716007  4.1237422934608672  4.5245179779042655   T   T   T
  4.8646537506777534  2.7395972684915844  6.7867769329225345   T   T   T
  7.3761296733285535  4.1237062068703416  6.7867769329225345   T   T   T
  4.8588960099999987  5.4983584431999999  0.0000000000000000   F   F   F
  8.0981600328629746  5.4983584431999999  2.2905055204283551   F   F   F
  6.4656520308452468  5.4977164841072206  4.5245179779042655   T   T   T
  7.2883440149999990  6.8729480540000001  0.0000000000000000   F   F   F
  5.6687120278629752  6.8729480540000001  2.2905055204283551   F   F   F
  8.9140823381885070  6.8777223359599695  4.5245179779042655   T   T   T
  4.8645346533389482  5.5074339060633486  6.7867769329225345   T   T   T
  7.3158964931738133  6.8924593196238506  6.7867769329225345   T   T   T
  4.8588960099999987  8.2475376647999994  0.0000000000000000   F   F   F
  8.0981600328629746  8.2475376647999994  2.2905055204283551   F   F   F
  6.4797160868101704  8.2487914643611067  4.5245179779042655   T   T   T
  7.2883440149999990  9.6221272756000005  0.0000000000000000   F   F   F
  5.6687120278629752  9.6221272756000005  2.2905055204283551   F   F   F
  8.9170864076166954  9.6220374338861792  4.5245179779042655   T   T   T
  4.8630250722812738  8.2737836467704078  6.7867769329225345   T   T   T
  7.3029291467073527  9.6219479882687029  6.7867769329225345   T   T   T
  4.8653843096787277  3.4506496731042353  8.7226877243450822   T   T   T
  4.8650758243713019  4.7961851761226377  8.7228134461276152   T   T   T
