Pt  O                                   
   1.00000000000000     
     9.7177920199999992    0.0000000000000000    0.0000000000000000
     0.0000000000000000   10.9967168863999998    0.0000000000000000
     0.0000000000000000    0.0000000000000000   25.0000000000000000
   Pt   O 
    64     2
Selective dynamics
Direct
  0.0000000000000000  0.0000000000000000  0.0000000000000000   F   F   F
  0.3333333349999990  0.0000000000000000  0.0916202208171342   F   F   F
  0.1662511089408733  0.9999129151088315  0.1804850898306430   T   T   T
  0.2500000000000000  0.1250000000000000  0.0000000000000000   F   F   F
  0.0833333349999989  0.1250000000000000  0.0916202208171342   F   F   F
  0.4166767176295758  0.1257244537934255  0.1817200385990840   T   T   T
  0.9996607152691548  0.0006676919873601  0.2731840038560427   T   T   T
  0.2457904015470169  0.1208092741312071  0.2715073983184429   T   T   T
  0.0000000000000000  0.2500000000000000  0.0000000000000000   F   F   F
  0.3333333349999990  0.2500000000000000  0.0916202208171342   F   F   F
  0.1667044304360981  0.2501928468331148  0.1814950567783607   T   T   T
  0.2500000000000000  0.3749999999999999  0.0000000000000000   F   F   F
  0.0833333349999989  0.3749999999999999  0.0916202208171342   F   F   F
  0.4174388544098234  0.3761804693201699  0.1825030604453947   T   T   T
  0.9991329818962759  0.2490374593504329  0.2731471641267300   T   T   T
  0.2476085691271577  0.3769409311543959  0.2753258557424118   T   T   T
  0.0000000000000000  0.5000000000000000  0.0000000000000000   F   F   F
  0.3333333349999990  0.5000000000000000  0.0916202208171342   F   F   F
  0.1695854495674151  0.4974431264149810  0.1830320605350842   T   T   T
  0.2500000000000000  0.6250000000000000  0.0000000000000000   F   F   F
  0.0833333349999989  0.6250000000000000  0.0916202208171342   F   F   F
  0.4197195844422263  0.6254195111286368  0.1827353766409806   T   T   T
  0.0021631140813767  0.5011657686195590  0.2730994056929164   T   T   T
  0.2489495746268000  0.6292370418048990  0.2720898548727967   T   T   T
  0.0000000000000000  0.7499999999999999  0.0000000000000000   F   F   F
  0.3333333349999990  0.7499999999999999  0.0916202208171342   F   F   F
  0.1677278643681268  0.7497521573410876  0.1805868776933752   T   T   T
  0.2500000000000000  0.8750000000000000  0.0000000000000000   F   F   F
  0.0833333349999989  0.8750000000000000  0.0916202208171342   F   F   F
  0.4168098312244188  0.8758074726417013  0.1808627232137963   T   T   T
  0.0012925502739071  0.7517915794278229  0.2731043712094538   T   T   T
  0.2500297418566516  0.8758173301965733  0.2727830721701975   T   T   T
  0.4999999999999999  0.0000000000000000  0.0000000000000000   F   F   F
  0.8333333349999990  0.0000000000000000  0.0916202208171342   F   F   F
  0.6675170945529818  0.0003876370755249  0.1813663826192764   T   T   T
  0.7500000000000000  0.1250000000000000  0.0000000000000000   F   F   F
  0.5833333349999990  0.1250000000000000  0.0916202208171342   F   F   F
  0.9159831825003864  0.1253951291416659  0.1811197185882640   T   T   T
  0.5017676283385104  0.0007491326543752  0.2727609163246493   T   T   T
  0.7523697419200506  0.1253367871555581  0.2735559814749743   T   T   T
  0.4999999999999999  0.2500000000000000  0.0000000000000000   F   F   F
  0.8333333349999990  0.2500000000000000  0.0916202208171342   F   F   F
  0.6633432250380419  0.2500169508899281  0.1832963662423966   T   T   T
  0.7500000000000000  0.3749999999999999  0.0000000000000000   F   F   F
  0.5833333349999990  0.3749999999999999  0.0916202208171342   F   F   F
  0.9169199052082698  0.3748693156991404  0.1806386713762902   T   T   T
  0.5067437026482385  0.2512563274033122  0.2753278125113136   T   T   T
  0.7580559766460326  0.3764053761961034  0.2723775946575170   T   T   T
  0.4999999999999999  0.5000000000000000  0.0000000000000000   F   F   F
  0.8333333349999990  0.5000000000000000  0.0916202208171342   F   F   F
  0.6666325786937315  0.5014796295804596  0.1826123300048975   T   T   T
  0.7500000000000000  0.6250000000000000  0.0000000000000000   F   F   F
  0.5833333349999990  0.6250000000000000  0.0916202208171342   F   F   F
  0.9195629825173520  0.6245218568014858  0.1807980990556289   T   T   T
  0.5095465036544151  0.5090178436384581  0.2750580938257501   T   T   T
  0.7582174471519615  0.6285747496578170  0.2727764268196212   T   T   T
  0.4999999999999999  0.7499999999999999  0.0000000000000000   F   F   F
  0.8333333349999990  0.7499999999999999  0.0916202208171342   F   F   F
  0.6688127831959694  0.7511475475992272  0.1813814199710488   T   T   T
  0.7500000000000000  0.8750000000000000  0.0000000000000000   F   F   F
  0.5833333349999990  0.8750000000000000  0.0916202208171342   F   F   F
  0.9177459821105887  0.8751654283860303  0.1812116884518468   T   T   T
  0.5024624416351080  0.7563882322138196  0.2727904759619845   T   T   T
  0.7530222686518808  0.8768825923745756  0.2734774926621155   T   T   T
  0.4714014000464161  0.4624872766541794  0.3461428721858054   T   T   T
  0.3796369007073233  0.3189549549969093  0.3331395479362188   T   T   T
 
  0.00000000E+00  0.00000000E+00  0.00000000E+00
  0.00000000E+00  0.00000000E+00  0.00000000E+00
  0.64134095E-02 -0.81762357E-02 -0.11573882E-01
  0.00000000E+00  0.00000000E+00  0.00000000E+00
  0.00000000E+00  0.00000000E+00  0.00000000E+00
  0.14628160E-02 -0.24803991E-02 -0.25855802E-03
  0.48590506E-02  0.75435094E-03 -0.32670575E-02
  0.17771001E-01  0.19005711E-01 -0.18683115E-01
  0.00000000E+00  0.00000000E+00  0.00000000E+00
  0.00000000E+00  0.00000000E+00  0.00000000E+00
 -0.25806080E-02 -0.67529718E-02 -0.11950642E-02
  0.00000000E+00  0.00000000E+00  0.00000000E+00
  0.00000000E+00  0.00000000E+00  0.00000000E+00
 -0.18727162E-01 -0.17498567E-01 -0.72471572E-01
  0.10784485E-01  0.44781687E-03 -0.80083718E-03
  0.11518402E-01 -0.15069862E-02 -0.79848406E-01
  0.00000000E+00  0.00000000E+00  0.00000000E+00
  0.00000000E+00  0.00000000E+00  0.00000000E+00
 -0.11468781E-01  0.43397887E-02 -0.13797199E-01
  0.00000000E+00  0.00000000E+00  0.00000000E+00
  0.00000000E+00  0.00000000E+00  0.00000000E+00
  0.10142504E-02 -0.36143463E-02 -0.93419914E-02
 -0.70832294E-02  0.11227932E-01  0.47183585E-02
  0.94057596E-02 -0.15778833E-02 -0.81837808E-02
  0.00000000E+00  0.00000000E+00  0.00000000E+00
  0.00000000E+00  0.00000000E+00  0.00000000E+00
  0.43070805E-02  0.10909425E-02  0.15478388E-02
  0.00000000E+00  0.00000000E+00  0.00000000E+00
  0.00000000E+00  0.00000000E+00  0.00000000E+00
  0.71636123E-02 -0.16728074E-02  0.32872778E-02
  0.62864810E-02  0.39418574E-02 -0.33036369E-02
  0.26417213E-02  0.76589275E-02  0.30785136E-03
  0.00000000E+00  0.00000000E+00  0.00000000E+00
  0.00000000E+00  0.00000000E+00  0.00000000E+00
  0.28877793E-02 -0.11666228E-02  0.35108126E-02
  0.00000000E+00  0.00000000E+00  0.00000000E+00
  0.00000000E+00  0.00000000E+00  0.00000000E+00
  0.41856425E-02  0.24071347E-02  0.18121658E-03
 -0.69524056E-02  0.88840621E-02  0.63711116E-02
  0.54574894E-02 -0.58785507E-03  0.18033388E-02
  0.00000000E+00  0.00000000E+00  0.00000000E+00
  0.00000000E+00  0.00000000E+00  0.00000000E+00
  0.86900974E-02 -0.35908748E-02 -0.88649601E-02
  0.00000000E+00  0.00000000E+00  0.00000000E+00
  0.00000000E+00  0.00000000E+00  0.00000000E+00
 -0.16453826E-02  0.10990996E-02  0.50697156E-02
  0.55012614E-02  0.22387054E-01 -0.70014468E-01
  0.13499741E-03  0.11806783E-01  0.55137727E-02
  0.00000000E+00  0.00000000E+00  0.00000000E+00
  0.00000000E+00  0.00000000E+00  0.00000000E+00
 -0.32736834E-02  0.50949766E-02 -0.16051676E-03
  0.00000000E+00  0.00000000E+00  0.00000000E+00
  0.00000000E+00  0.00000000E+00  0.00000000E+00
 -0.34053824E-02  0.28765904E-02  0.24284902E-02
 -0.17639400E-01 -0.24462023E-01 -0.58301874E-01
 -0.91234035E-02 -0.68041864E-02  0.20049878E-01
  0.00000000E+00  0.00000000E+00  0.00000000E+00
  0.00000000E+00  0.00000000E+00  0.00000000E+00
 -0.30285669E-03 -0.55656157E-03  0.86489326E-02
  0.00000000E+00  0.00000000E+00  0.00000000E+00
  0.00000000E+00  0.00000000E+00  0.00000000E+00
 -0.10025700E-02 -0.48269993E-03  0.58505102E-02
 -0.23659394E-02 -0.71693484E-02  0.14901360E-01
 -0.57530614E-02 -0.39243407E-03  0.12799504E-02
 -0.33067456E+00 -0.53886586E+00  0.54844288E-01
  0.35399927E+00  0.61141695E+00  0.26801300E+00
