Pt  O                                   
   1.00000000000000     
     9.7177920199999992    0.0000000000000000    0.0000000000000000
     0.0000000000000000   10.9967168863999998    0.0000000000000000
     0.0000000000000000    0.0000000000000000   25.0000000000000000
   Pt   O 
    64     2
Selective dynamics
Direct
  0.0000000000000000  0.0000000000000000  0.0000000000000000   F   F   F
  0.3333333349999990  0.0000000000000000  0.0916202208171342   F   F   F
  0.1685795494434901  0.9997785203270609  0.1810499760253031   T   T   T
  0.2500000000000000  0.1250000000000000  0.0000000000000000   F   F   F
  0.0833333349999990  0.1250000000000000  0.0916202208171342   F   F   F
  0.4189494140435528  0.1272555842375364  0.1837705276418646   T   T   T
  0.0012179605318771  0.9993277575479494  0.2728894252167688   T   T   T
  0.2480426822040481  0.1243183497074710  0.2728962531822485   T   T   T
  0.0000000000000000  0.2500000000000000  0.0000000000000000   F   F   F
  0.3333333349999990  0.2500000000000000  0.0916202208171342   F   F   F
  0.1668927106798995  0.2491944006553057  0.1806999753873117   T   T   T
  0.2500000000000000  0.3750000000000000  0.0000000000000000   F   F   F
  0.0833333349999990  0.3750000000000000  0.0916202208171342   F   F   F
  0.4160627235638151  0.3750116400931776  0.1815912273420971   T   T   T
  1.0002662612891815  0.2486612668272449  0.2730285582232787   T   T   T
  0.2430319695177169  0.3750275332124215  0.2708403088013202   T   T   T
  0.0000000000000000  0.5000000000000000  0.0000000000000000   F   F   F
  0.3333333349999990  0.5000000000000000  0.0916202208171342   F   F   F
  0.1668857924562147  0.5008019854331902  0.1806956933453598   T   T   T
  0.2500000000000000  0.6250000000000000  0.0000000000000000   F   F   F
  0.0833333349999990  0.6250000000000000  0.0916202208171342   F   F   F
  0.4189441193515687  0.6227669095048389  0.1837832424011675   T   T   T
  1.0002542658932261  0.5013294811944251  0.2730222210718112   T   T   T
  0.2480192347464177  0.6257170220437702  0.2728928644509960   T   T   T
  0.0000000000000000  0.7500000000000000  0.0000000000000000   F   F   F
  0.3333333349999990  0.7500000000000000  0.0916202208171342   F   F   F
  0.1685555121710385  0.7502159134532727  0.1810474761103974   T   T   T
  0.2500000000000000  0.8750000000000000  0.0000000000000000   F   F   F
  0.0833333349999990  0.8750000000000000  0.0916202208171342   F   F   F
  0.4178396997879662  0.8750033112436849  0.1810259420690490   T   T   T
  0.0012416769378519  0.7507286700440258  0.2729092718893855   T   T   T
  0.2505388323674349  0.8750079628609777  0.2731220955988847   T   T   T
  0.5000000000000000  0.0000000000000000  0.0000000000000000   F   F   F
  0.8333333349999990  0.0000000000000000  0.0916202208171342   F   F   F
  0.6672508940634299  0.9998603127645113  0.1813705539483095   T   T   T
  0.7500000000000000  0.1250000000000000  0.0000000000000000   F   F   F
  0.5833333349999990  0.1250000000000000  0.0916202208171342   F   F   F
  0.9174193084106159  0.1247755573013682  0.1809946394439347   T   T   T
  0.5006727576424559  0.9980202939487731  0.2733893200665823   T   T   T
  0.7529317970842905  0.1237763789519795  0.2725671956021981   T   T   T
  0.5000000000000000  0.2500000000000000  0.0000000000000000   F   F   F
  0.8333333349999990  0.2500000000000000  0.0916202208171342   F   F   F
  0.6653670540271548  0.2500442018889353  0.1824513573663755   T   T   T
  0.7500000000000000  0.3750000000000000  0.0000000000000000   F   F   F
  0.5833333349999990  0.3750000000000000  0.0916202208171342   F   F   F
  0.9175860214103936  0.3750000574758306  0.1804367805465118   T   T   T
  0.5006694684998604  0.2492403161217120  0.2764369479444431   T   T   T
  0.7584750080829189  0.3750253872131487  0.2713426005642611   T   T   T
  0.5000000000000000  0.5000000000000000  0.0000000000000000   F   F   F
  0.8333333349999990  0.5000000000000000  0.0916202208171342   F   F   F
  0.6653758088621337  0.4999584918416730  0.1824348601098205   T   T   T
  0.7500000000000000  0.6250000000000000  0.0000000000000000   F   F   F
  0.5833333349999990  0.6250000000000000  0.0916202208171342   F   F   F
  0.9174338553043982  0.6252398573130279  0.1810084041276342   T   T   T
  0.5006749577442660  0.5007389961158668  0.2764213809017994   T   T   T
  0.7529514573658518  0.6262424647511414  0.2725772491644248   T   T   T
  0.5000000000000000  0.7500000000000000  0.0000000000000000   F   F   F
  0.8333333349999990  0.7500000000000000  0.0916202208171342   F   F   F
  0.6672436294550498  0.7501273751689417  0.1813775682918700   T   T   T
  0.7500000000000000  0.8750000000000000  0.0000000000000000   F   F   F
  0.5833333349999990  0.8750000000000000  0.0916202208171342   F   F   F
  0.9180345339728360  0.8750048155601856  0.1811099443175207   T   T   T
  0.5007234785017370  0.7520236753958573  0.2734103641221956   T   T   T
  0.7519398092441728  0.8750064874601978  0.2728738836810750   T   T   T
  0.5012717032291277  0.3126376148657919  0.3521549259649518   T   T   T
  0.5012825293698512  0.4373386560796070  0.3521459284122854   T   T   T
 
  0.00000000E+00  0.00000000E+00  0.00000000E+00
  0.00000000E+00  0.00000000E+00  0.00000000E+00
  0.00000000E+00  0.00000000E+00  0.00000000E+00
  0.00000000E+00  0.00000000E+00  0.00000000E+00
  0.00000000E+00  0.00000000E+00  0.00000000E+00
  0.00000000E+00  0.00000000E+00  0.00000000E+00
  0.00000000E+00  0.00000000E+00  0.00000000E+00
  0.00000000E+00  0.00000000E+00  0.00000000E+00
  0.00000000E+00  0.00000000E+00  0.00000000E+00
  0.00000000E+00  0.00000000E+00  0.00000000E+00
  0.00000000E+00  0.00000000E+00  0.00000000E+00
  0.00000000E+00  0.00000000E+00  0.00000000E+00
  0.00000000E+00  0.00000000E+00  0.00000000E+00
  0.00000000E+00  0.00000000E+00  0.00000000E+00
  0.00000000E+00  0.00000000E+00  0.00000000E+00
  0.00000000E+00  0.00000000E+00  0.00000000E+00
  0.00000000E+00  0.00000000E+00  0.00000000E+00
  0.00000000E+00  0.00000000E+00  0.00000000E+00
  0.00000000E+00  0.00000000E+00  0.00000000E+00
  0.00000000E+00  0.00000000E+00  0.00000000E+00
  0.00000000E+00  0.00000000E+00  0.00000000E+00
  0.00000000E+00  0.00000000E+00  0.00000000E+00
  0.00000000E+00  0.00000000E+00  0.00000000E+00
  0.00000000E+00  0.00000000E+00  0.00000000E+00
  0.00000000E+00  0.00000000E+00  0.00000000E+00
  0.00000000E+00  0.00000000E+00  0.00000000E+00
  0.00000000E+00  0.00000000E+00  0.00000000E+00
  0.00000000E+00  0.00000000E+00  0.00000000E+00
  0.00000000E+00  0.00000000E+00  0.00000000E+00
  0.00000000E+00  0.00000000E+00  0.00000000E+00
  0.00000000E+00  0.00000000E+00  0.00000000E+00
  0.00000000E+00  0.00000000E+00  0.00000000E+00
  0.00000000E+00  0.00000000E+00  0.00000000E+00
  0.00000000E+00  0.00000000E+00  0.00000000E+00
  0.00000000E+00  0.00000000E+00  0.00000000E+00
  0.00000000E+00  0.00000000E+00  0.00000000E+00
  0.00000000E+00  0.00000000E+00  0.00000000E+00
  0.00000000E+00  0.00000000E+00  0.00000000E+00
  0.00000000E+00  0.00000000E+00  0.00000000E+00
  0.00000000E+00  0.00000000E+00  0.00000000E+00
  0.00000000E+00  0.00000000E+00  0.00000000E+00
  0.00000000E+00  0.00000000E+00  0.00000000E+00
  0.00000000E+00  0.00000000E+00  0.00000000E+00
  0.00000000E+00  0.00000000E+00  0.00000000E+00
  0.00000000E+00  0.00000000E+00  0.00000000E+00
  0.00000000E+00  0.00000000E+00  0.00000000E+00
  0.00000000E+00  0.00000000E+00  0.00000000E+00
  0.00000000E+00  0.00000000E+00  0.00000000E+00
  0.00000000E+00  0.00000000E+00  0.00000000E+00
  0.00000000E+00  0.00000000E+00  0.00000000E+00
  0.00000000E+00  0.00000000E+00  0.00000000E+00
  0.00000000E+00  0.00000000E+00  0.00000000E+00
  0.00000000E+00  0.00000000E+00  0.00000000E+00
  0.00000000E+00  0.00000000E+00  0.00000000E+00
  0.00000000E+00  0.00000000E+00  0.00000000E+00
  0.00000000E+00  0.00000000E+00  0.00000000E+00
  0.00000000E+00  0.00000000E+00  0.00000000E+00
  0.00000000E+00  0.00000000E+00  0.00000000E+00
  0.00000000E+00  0.00000000E+00  0.00000000E+00
  0.00000000E+00  0.00000000E+00  0.00000000E+00
  0.00000000E+00  0.00000000E+00  0.00000000E+00
  0.00000000E+00  0.00000000E+00  0.00000000E+00
  0.00000000E+00  0.00000000E+00  0.00000000E+00
  0.00000000E+00  0.00000000E+00  0.00000000E+00
  0.00000000E+00  0.00000000E+00  0.00000000E+00
  0.00000000E+00  0.00000000E+00  0.00000000E+00
