Pt  O 
 1.0000000000000000
     9.9121478603999993    0.0000000000000000    0.0000000000000000
     0.0000000000000000   11.2211396800000003    0.0000000000000000
     0.0000000000000000    0.0000000000000000   25.0000000000000000
 Pt  O  
  64   2
Selective dynamics
Cartesian
  0.0000000000000000  0.0000000000000000  0.0000000000000000   F   F   F
  3.3040493033202365  0.0000000000000000  2.2905055204283551   F   F   F
  1.6420371140267669 11.2167132482883662  4.4816636033816000   F   F   F
  2.4780369650999998  1.4026424600000000  0.0000000000000000   F   F   F
  0.8260123382202355  1.4026424600000000  2.2905055204283551   F   F   F
  4.1310921917915087  1.4072061204579425  4.5133528736990698   F   F   F
  9.8949238431094653 11.2175044370260775  6.7737979827505592   F   F   F
  2.4282878495786377  1.3340328824822545  6.7305665446383447   F   F   F
  0.0000000000000000  2.8052849200000001  0.0000000000000000   F   F   F
  3.3040493033202365  2.8052849200000001  2.2905055204283551   F   F   F
  1.6565499860140012  2.8080353640936337  4.5114564596813072   F   F   F
  2.4780369650999998  4.2079273799999992  0.0000000000000000   F   F   F
  0.8260123382202355  4.2079273799999992  2.2905055204283551   F   F   F
  4.1432562611926631  4.2213111932958212  4.5412129608764822   F   F   F
  9.8977630833093606  2.7772218085668912  6.7669970987429151   F   F   F
  2.4558569558496588  4.2316220749377056  6.8294504402952096   F   F   F
  0.0000000000000000  5.6105698399999993  0.0000000000000000   F   F   F
  3.3040493033202365  5.6105698399999993  2.2905055204283551   F   F   F
  1.6821747829240639  5.5721439624849536  4.5407605559200448   F   F   F
  2.4780369650999998  7.0132122999999993  0.0000000000000000   F   F   F
  0.8260123382202355  7.0132122999999993  2.2905055204283551   F   F   F
  4.1605954008728876  7.0167977311662186  4.5328177659439124   F   F   F
  0.0153338520510015  5.6152946278393481  6.7629187365490075   F   F   F
  2.4591988274692995  7.0605849668038045  6.7362851493738303   F   F   F
  0.0000000000000000  8.4158547599999984  0.0000000000000000   F   F   F
  3.3040493033202365  8.4158547599999984  2.2905055204283551   F   F   F
  1.6572793410731024  8.4121297495220535  4.4804319042615024   F   F   F
  2.4780369650999998  9.8184972199999994  0.0000000000000000   F   F   F
  0.8260123382202355  9.8184972199999994  2.2905055204283551   F   F   F
  4.1220745388955802  9.8250038984350816  4.4892242861002494   F   F   F
  0.0060825616048465  8.4320662738372540  6.7662528235190171   F   F   F
  2.4649832679799948  9.8188801885916046  6.7658640272878880   F   F   F
  4.9560739301999988  0.0000000000000000  0.0000000000000000   F   F   F
  8.2601232335202361  0.0000000000000000  2.2905055204283551   F   F   F
  6.6084541288933565 11.2197790895847174  4.4984292551129696   F   F   F
  7.4341108952999999  1.4026424600000000  0.0000000000000000   F   F   F
  5.7820862684202359  1.4026424600000000  2.2905055204283551   F   F   F
  9.0787691557766017  1.4032117100614276  4.4951952987187829   F   F   F
  4.9606050738902585 11.2076301995741741  6.7636879932979719   F   F   F
  7.4432562294214080  1.3879926293196070  6.7725280218934047   F   F   F
  4.9560739301999988  2.8052849200000001  0.0000000000000000   F   F   F
  8.2601232335202361  2.8052849200000001  2.2905055204283551   F   F   F
  6.5746195288467524  2.7983329859957653  4.5412327408226076   F   F   F
  7.4341108952999999  4.2079273799999992  0.0000000000000000   F   F   F
  5.7820862684202359  4.2079273799999992  2.2905055204283551   F   F   F
  9.0924581248049758  4.2011356805822970  4.4873323158786373   F   F   F
  5.0062494062350718  2.7874897585791727  6.8230178212080643   F   F   F
  7.4993643813192543  4.2065691650523531  6.7388696199440004   F   F   F
  4.9560739301999988  5.6105698399999993  0.0000000000000000   F   F   F
  8.2601232335202361  5.6105698399999993  2.2905055204283551   F   F   F
  6.6113299481187804  5.6266655469043290  4.5293069263518397   F   F   F
  7.4341108952999999  7.0132122999999993  0.0000000000000000   F   F   F
  5.7820862684202359  7.0132122999999993  2.2905055204283551   F   F   F
  9.1155253535757037  7.0036790330251684  4.4888837321100796   F   F   F
  5.0456252971539968  5.7368002602085983  6.8045505437295501   F   F   F
  7.5153231805056118  7.0559288045760260  6.7577464247468617   F   F   F
  4.9560739301999988  8.4158547599999984  0.0000000000000000   F   F   F
  8.2601232335202361  8.4158547599999984  2.2905055204283551   F   F   F
  6.6236792470446284  8.4262147061420709  4.5004807126894821   F   F   F
  7.4341108952999999  9.8184972199999994  0.0000000000000000   F   F   F
  5.7820862684202359  9.8184972199999994  2.2905055204283551   F   F   F
  9.0910460848160959  9.8185481118107987  4.4972281289502272   F   F   F
  4.9687642675703616  8.4933878945017263  6.7639355032817203   F   F   F
  7.4526384949069069  9.8309795562448414  6.7742648550035103   F   F   F
  4.7039423319791434  5.1592863578350343  8.6036669610209948   T   T   T
  3.7916296289314020  3.6145217601298443  8.2979794431996368   T   T   T
