Pt  O 
 1.0000000000000000
     9.7177920199999992    0.0000000000000000    0.0000000000000000
     0.0000000000000000   11.2211396800000003    0.0000000000000000
     0.0000000000000000    0.0000000000000000   25.0000000000000000
 Pt  O  
  64   2
Selective dynamics
Cartesian
  0.0000000000000000  0.0000000000000000  0.0000000000000000   F   F   F
  3.2392640228629768  0.0000000000000000  2.2905055204283551   F   F   F
  1.6322075297401795  0.0102130493945709  4.5026306419530329   T   T   T
  2.4294480049999998  1.4026424600000000  0.0000000000000000   F   F   F
  0.8098160178629769  1.4026424600000000  2.2905055204283551   F   F   F
  4.0602126890948389  1.4264752596380164  4.5403174107132100   T   T   T
 -0.0138619237402623 -0.0168261418260427  6.7643564073902649   T   T   T
  2.3856670109025120  1.3254400725610815  6.7798778885681843   T   T   T
  0.0000000000000000  2.8052849200000001  0.0000000000000000   F   F   F
  3.2392640228629768  2.8052849200000001  2.2905055204283551   F   F   F
  1.6304972654506913  2.8107586700468223  4.5116593560290683   T   T   T
  2.4294480049999998  4.2079273800000001  0.0000000000000000   F   F   F
  0.8098160178629769  4.2079273800000001  2.2905055204283551   F   F   F
  4.0459493491585121  4.2078607217319917  4.5315925861530371   T   T   T
 -0.0280911887128503  2.7783437145960930  6.7507910755205112   T   T   T
  2.3092524479608199  4.2078724172658628  6.7923607548833260   T   T   T
  0.0000000000000000  5.6105698400000001  0.0000000000000000   F   F   F
  3.2392640228629768  5.6105698400000001  2.2905055204283551   F   F   F
  1.6305334184338651  5.6050433518091758  4.5116646183046232   T   T   T
  2.4294480049999998  7.0132123000000002  0.0000000000000000   F   F   F
  0.8098160178629769  7.0132123000000002  2.2905055204283551   F   F   F
  4.0601954181851401  6.9892797093393888  4.5403528511242310   T   T   T
 -0.0281483337770995  5.6373590654353123  6.7508096909424307   T   T   T
  2.3856304476735390  7.0902212986386388  6.7799236989471856   T   T   T
  0.0000000000000000  8.4158547600000002  0.0000000000000000   F   F   F
  3.2392640228629768  8.4158547600000002  2.2905055204283551   F   F   F
  1.6322086969004062  8.4055919198704299  4.5026512486165551   T   T   T
  2.4294480049999998  9.8184972200000011  0.0000000000000000   F   F   F
  0.8098160178629769  9.8184972200000011  2.2905055204283551   F   F   F
  4.0499533041404607  9.8184564125043785  4.4906166429777308   T   T   T
 -0.0138739450601795  8.4325912706136883  6.7643367324204728   T   T   T
  2.4200108970149685  9.8184480352844190  6.7655352567567242   T   T   T
  4.8588960099999996  0.0000000000000000  0.0000000000000000   F   F   F
  8.0981600328629764  0.0000000000000000  2.2905055204283551   F   F   F
  6.4800095809450671 -0.0007806636531031  4.4916068593607372   T   T   T
  7.2883440149999998  1.4026424600000000  0.0000000000000000   F   F   F
  5.6687120278629761  1.4026424600000000  2.2905055204283551   F   F   F
  8.9123155599433765  1.4019813465850284  4.4869022091722659   T   T   T
  4.8756130698666951 -0.0291551762456988  6.7555011287260802   T   T   T
  7.3158869658182475  1.3723000929032423  6.7583369097542434   T   T   T
  4.8588960099999996  2.8052849200000001  0.0000000000000000   F   F   F
  8.0981600328629764  2.8052849200000001  2.2905055204283551   F   F   F
  6.4628530696205049  2.8047618608161669  4.5263766563869563   T   T   T
  7.2883440149999998  4.2079273800000001  0.0000000000000000   F   F   F
  5.6687120278629761  4.2079273800000001  2.2905055204283551   F   F   F
  8.9118272456712102  4.2079138397249327  4.4807863055508790   T   T   T
  4.9337011825775319  2.7900752031076497  6.8340452720622356   T   T   T
  7.3561028635350407  4.2078954281991541  6.7406291603082522   T   T   T
  4.8588960099999996  5.6105698400000001  0.0000000000000000   F   F   F
  8.0981600328629764  5.6105698400000001  2.2905055204283551   F   F   F
  6.4628023232551008  5.6109997190842407  4.5264052406227329   T   T   T
  7.2883440149999998  7.0132123000000002  0.0000000000000000   F   F   F
  5.6687120278629761  7.0132123000000002  2.2905055204283551   F   F   F
  8.9122795591616804  7.0137950811456040  4.4869129125484104   T   T   T
  4.9336416339081293  5.6255211435020085  6.8341486425891418   T   T   T
  7.3158301704213660  7.0434181248336118  6.7583215433732411   T   T   T
  4.8588960099999996  8.4158547600000002  0.0000000000000000   F   F   F
  8.0981600328629764  8.4158547600000002  2.2905055204283551   F   F   F
  6.4799714011537795  8.4166499186512027  4.4915872736145239   T   T   T
  7.2883440149999998  9.8184972200000011  0.0000000000000000   F   F   F
  5.6687120278629761  9.8184972200000011  2.2905055204283551   F   F   F
  8.9217523089337334  9.8184513823909079  4.4862534160891032   T   T   T
  4.8755475920593767  8.4448040764225354  6.7555431543455704   T   T   T
  7.3028156259886003  9.8184057468717878  6.7566549347830929   T   T   T
  4.6159512095000004  5.1897771020000008  8.7228134461276152   T   T   T
  3.6441720074999999  3.5066061500000001  8.3145181742145020   T   T   T
